 &BANDS
   prefix          = 'silicon' 
   outdir          = './temp/' 
   filband         = 'bands_pp.dat' 
 /

