
     Program PWSCF v.7.3.1 starts on 23Jan2026 at 12:23:57 

     This program is part of the open-source Quantum ESPRESSO suite
     for quantum simulation of materials; please cite
         "P. Giannozzi et al., J. Phys.:Condens. Matter 21 395502 (2009);
         "P. Giannozzi et al., J. Phys.:Condens. Matter 29 465901 (2017);
         "P. Giannozzi et al., J. Chem. Phys. 152 154105 (2020);
          URL http://www.quantum-espresso.org", 
     in publications or presentations arising from this work. More details at
     http://www.quantum-espresso.org/quote

     Parallel version (MPI), running on    14 processors

     MPI processes distributed on     1 nodes
     20637 MiB available memory on the printing compute node when the environment starts

     Reading input from bands.in

     Current dimensions of program PWSCF are:
     Max number of different atomic species (ntypx) = 10
     Max number of k-points (npk) = 120000
     Max angular momentum in pseudopotentials (lmaxx) =  4
     file Si.pbesol-n-kjpaw_psl.1.0.0.UPF: wavefunction(s)  3S 3P renormalized

     Atomic positions and unit cell read from directory:
     ./temp/silicon.save/


     R & G space division:  proc/nbgrp/npool/nimage =      14
     Subspace diagonalization in iterative solution of the eigenvalue problem:
     a serial algorithm will be used


     Parallelization info
     --------------------
     sticks:   dense  smooth     PW     G-vecs:    dense   smooth      PW
     Min          57      57     17                 1070     1070     172
     Max          58      58     18                 1073     1073     174
     Sum         805     805    241                15009    15009    2421

     Using Slab Decomposition



     bravais-lattice index     =           -5
     lattice parameter (alat)  =       7.2594  a.u.
     unit-cell volume          =     270.5133 (a.u.)^3
     number of atoms/cell      =            2
     number of atomic types    =            1
     number of electrons       =         8.00
     number of Kohn-Sham states=            8
     kinetic-energy cutoff     =      55.0000  Ry
     charge density cutoff     =     220.0000  Ry
     Exchange-correlation= SLA  PW   PSX  PSC
                           (   1   4  10   8   0   0   0)

     celldm(1)=   7.259408  celldm(2)=   0.000000  celldm(3)=   0.000000
     celldm(4)=   0.500000  celldm(5)=   0.000000  celldm(6)=   0.000000

     crystal axes: (cart. coord. in units of alat)
               a(1) = (   0.000000   0.707107   0.707107 )  
               a(2) = (   0.707107   0.000000   0.707107 )  
               a(3) = (   0.707107   0.707107   0.000000 )  

     reciprocal axes: (cart. coord. in units 2 pi/alat)
               b(1) = ( -0.707107  0.707107  0.707107 )  
               b(2) = (  0.707107 -0.707107  0.707107 )  
               b(3) = (  0.707107  0.707107 -0.707107 )  


     PseudoPot. # 1 for Si read from file:
     ./../../pseudos/Si.pbesol-n-kjpaw_psl.1.0.0.UPF
     MD5 check sum: 9fbd692c527d147d9ad0870b71777ff4
     Pseudo is Projector augmented-wave + core cor, Zval =  4.0
     Generated using &quot;atomic&quot; code by A. Dal Corso  v.6.3
     Shape of augmentation charge: PSQ
     Using radial grid of 1141 points,  6 beta functions with: 
                l(1) =   0
                l(2) =   0
                l(3) =   1
                l(4) =   1
                l(5) =   2
                l(6) =   2
     Q(r) pseudized with 0 coefficients 


     atomic species   valence    mass     pseudopotential
     Si                4.00    28.08550     Si( 1.00)

     48 Sym. Ops., with inversion, found (24 have fractional translation)


                                    s                        frac. trans.

      isym =  1     identity                                     

 cryst.   s( 1) = (     1          0          0      )
                  (     0          1          0      )
                  (     0          0          1      )

 cart.    s( 1) = (  1.0000000  0.0000000  0.0000000 )
                  (  0.0000000  1.0000000  0.0000000 )
                  (  0.0000000  0.0000000  1.0000000 )


      isym =  2     180 deg rotation - cart. axis [0,0,1]        

 cryst.   s( 2) = (     0          1         -1      )
                  (     1          0         -1      )
                  (     0          0         -1      )

 cart.    s( 2) = ( -1.0000000  0.0000000  0.0000000 )
                  (  0.0000000 -1.0000000  0.0000000 )
                  (  0.0000000  0.0000000  1.0000000 )


      isym =  3     180 deg rotation - cart. axis [0,1,0]        

 cryst.   s( 3) = (     0         -1          1      )
                  (     0         -1          0      )
                  (     1         -1          0      )

 cart.    s( 3) = ( -1.0000000  0.0000000  0.0000000 )
                  (  0.0000000  1.0000000  0.0000000 )
                  (  0.0000000  0.0000000 -1.0000000 )


      isym =  4     180 deg rotation - cart. axis [1,0,0]        

 cryst.   s( 4) = (    -1          0          0      )
                  (    -1          0          1      )
                  (    -1          1          0      )

 cart.    s( 4) = (  1.0000000  0.0000000  0.0000000 )
                  (  0.0000000 -1.0000000  0.0000000 )
                  (  0.0000000  0.0000000 -1.0000000 )


      isym =  5     180 deg rotation - cart. axis [1,1,0]        

 cryst.   s( 5) = (    -1          0          1      )    f =( -0.2500000 )
                  (     0         -1          1      )       ( -0.2500000 )
                  (     0          0          1      )       ( -0.2500000 )

 cart.    s( 5) = (  0.0000000  1.0000000  0.0000000 )    f =( -0.3535534 )
                  (  1.0000000  0.0000000  0.0000000 )       ( -0.3535534 )
                  (  0.0000000  0.0000000 -1.0000000 )       ( -0.3535534 )


      isym =  6     180 deg rotation - cart. axis [1,-1,0]       

 cryst.   s( 6) = (     0         -1          0      )    f =( -0.2500000 )
                  (    -1          0          0      )       ( -0.2500000 )
                  (     0          0         -1      )       ( -0.2500000 )

 cart.    s( 6) = (  0.0000000 -1.0000000  0.0000000 )    f =( -0.3535534 )
                  ( -1.0000000  0.0000000  0.0000000 )       ( -0.3535534 )
                  (  0.0000000  0.0000000 -1.0000000 )       ( -0.3535534 )


      isym =  7      90 deg rotation - cart. axis [0,0,-1]       

 cryst.   s( 7) = (     0          1          0      )    f =( -0.2500000 )
                  (     0          1         -1      )       ( -0.2500000 )
                  (    -1          1          0      )       ( -0.2500000 )

 cart.    s( 7) = (  0.0000000  1.0000000  0.0000000 )    f =( -0.3535534 )
                  ( -1.0000000  0.0000000  0.0000000 )       ( -0.3535534 )
                  (  0.0000000  0.0000000  1.0000000 )       ( -0.3535534 )


      isym =  8      90 deg rotation - cart. axis [0,0,1]        

 cryst.   s( 8) = (     1          0         -1      )    f =( -0.2500000 )
                  (     1          0          0      )       ( -0.2500000 )
                  (     1         -1          0      )       ( -0.2500000 )

 cart.    s( 8) = (  0.0000000 -1.0000000  0.0000000 )    f =( -0.3535534 )
                  (  1.0000000  0.0000000  0.0000000 )       ( -0.3535534 )
                  (  0.0000000  0.0000000  1.0000000 )       ( -0.3535534 )


      isym =  9     180 deg rotation - cart. axis [1,0,1]        

 cryst.   s( 9) = (    -1          1          0      )    f =( -0.2500000 )
                  (     0          1          0      )       ( -0.2500000 )
                  (     0          1         -1      )       ( -0.2500000 )

 cart.    s( 9) = (  0.0000000  0.0000000  1.0000000 )    f =( -0.3535534 )
                  (  0.0000000 -1.0000000  0.0000000 )       ( -0.3535534 )
                  (  1.0000000  0.0000000  0.0000000 )       ( -0.3535534 )


      isym = 10     180 deg rotation - cart. axis [-1,0,1]       

 cryst.   s(10) = (     0          0         -1      )    f =( -0.2500000 )
                  (     0         -1          0      )       ( -0.2500000 )
                  (    -1          0          0      )       ( -0.2500000 )

 cart.    s(10) = (  0.0000000  0.0000000 -1.0000000 )    f =( -0.3535534 )
                  (  0.0000000 -1.0000000  0.0000000 )       ( -0.3535534 )
                  ( -1.0000000  0.0000000  0.0000000 )       ( -0.3535534 )


      isym = 11      90 deg rotation - cart. axis [0,1,0]        

 cryst.   s(11) = (     0          0          1      )    f =( -0.2500000 )
                  (    -1          0          1      )       ( -0.2500000 )
                  (     0         -1          1      )       ( -0.2500000 )

 cart.    s(11) = (  0.0000000  0.0000000  1.0000000 )    f =( -0.3535534 )
                  (  0.0000000  1.0000000  0.0000000 )       ( -0.3535534 )
                  ( -1.0000000  0.0000000  0.0000000 )       ( -0.3535534 )


      isym = 12      90 deg rotation - cart. axis [0,-1,0]       

 cryst.   s(12) = (     1         -1          0      )    f =( -0.2500000 )
                  (     1          0         -1      )       ( -0.2500000 )
                  (     1          0          0      )       ( -0.2500000 )

 cart.    s(12) = (  0.0000000  0.0000000 -1.0000000 )    f =( -0.3535534 )
                  (  0.0000000  1.0000000  0.0000000 )       ( -0.3535534 )
                  (  1.0000000  0.0000000  0.0000000 )       ( -0.3535534 )


      isym = 13     180 deg rotation - cart. axis [0,1,1]        

 cryst.   s(13) = (     1          0          0      )    f =( -0.2500000 )
                  (     1         -1          0      )       ( -0.2500000 )
                  (     1          0         -1      )       ( -0.2500000 )

 cart.    s(13) = ( -1.0000000  0.0000000  0.0000000 )    f =( -0.3535534 )
                  (  0.0000000  0.0000000  1.0000000 )       ( -0.3535534 )
                  (  0.0000000  1.0000000  0.0000000 )       ( -0.3535534 )


      isym = 14     180 deg rotation - cart. axis [0,1,-1]       

 cryst.   s(14) = (    -1          0          0      )    f =( -0.2500000 )
                  (     0          0         -1      )       ( -0.2500000 )
                  (     0         -1          0      )       ( -0.2500000 )

 cart.    s(14) = ( -1.0000000  0.0000000  0.0000000 )    f =( -0.3535534 )
                  (  0.0000000  0.0000000 -1.0000000 )       ( -0.3535534 )
                  (  0.0000000 -1.0000000  0.0000000 )       ( -0.3535534 )


      isym = 15      90 deg rotation - cart. axis [-1,0,0]       

 cryst.   s(15) = (     0         -1          1      )    f =( -0.2500000 )
                  (     0          0          1      )       ( -0.2500000 )
                  (    -1          0          1      )       ( -0.2500000 )

 cart.    s(15) = (  1.0000000  0.0000000  0.0000000 )    f =( -0.3535534 )
                  (  0.0000000  0.0000000  1.0000000 )       ( -0.3535534 )
                  (  0.0000000 -1.0000000  0.0000000 )       ( -0.3535534 )


      isym = 16      90 deg rotation - cart. axis [1,0,0]        

 cryst.   s(16) = (     0          1         -1      )    f =( -0.2500000 )
                  (    -1          1          0      )       ( -0.2500000 )
                  (     0          1          0      )       ( -0.2500000 )

 cart.    s(16) = (  1.0000000  0.0000000  0.0000000 )    f =( -0.3535534 )
                  (  0.0000000  0.0000000 -1.0000000 )       ( -0.3535534 )
                  (  0.0000000  1.0000000  0.0000000 )       ( -0.3535534 )


      isym = 17     120 deg rotation - cart. axis [-1,-1,-1]     

 cryst.   s(17) = (     0          0          1      )
                  (     1          0          0      )
                  (     0          1          0      )

 cart.    s(17) = (  0.0000000  1.0000000  0.0000000 )
                  (  0.0000000  0.0000000  1.0000000 )
                  (  1.0000000  0.0000000  0.0000000 )


      isym = 18     120 deg rotation - cart. axis [-1,1,1]       

 cryst.   s(18) = (     1         -1          0      )
                  (     0         -1          1      )
                  (     0         -1          0      )

 cart.    s(18) = (  0.0000000 -1.0000000  0.0000000 )
                  (  0.0000000  0.0000000  1.0000000 )
                  ( -1.0000000  0.0000000  0.0000000 )


      isym = 19     120 deg rotation - cart. axis [1,1,-1]       

 cryst.   s(19) = (    -1          1          0      )
                  (    -1          0          0      )
                  (    -1          0          1      )

 cart.    s(19) = (  0.0000000  1.0000000  0.0000000 )
                  (  0.0000000  0.0000000 -1.0000000 )
                  ( -1.0000000  0.0000000  0.0000000 )


      isym = 20     120 deg rotation - cart. axis [1,-1,1]       

 cryst.   s(20) = (     0          0         -1      )
                  (     0          1         -1      )
                  (     1          0         -1      )

 cart.    s(20) = (  0.0000000 -1.0000000  0.0000000 )
                  (  0.0000000  0.0000000 -1.0000000 )
                  (  1.0000000  0.0000000  0.0000000 )


      isym = 21     120 deg rotation - cart. axis [1,1,1]        

 cryst.   s(21) = (     0          1          0      )
                  (     0          0          1      )
                  (     1          0          0      )

 cart.    s(21) = (  0.0000000  0.0000000  1.0000000 )
                  (  1.0000000  0.0000000  0.0000000 )
                  (  0.0000000  1.0000000  0.0000000 )


      isym = 22     120 deg rotation - cart. axis [-1,1,-1]      

 cryst.   s(22) = (    -1          0          1      )
                  (    -1          1          0      )
                  (    -1          0          0      )

 cart.    s(22) = (  0.0000000  0.0000000  1.0000000 )
                  ( -1.0000000  0.0000000  0.0000000 )
                  (  0.0000000 -1.0000000  0.0000000 )


      isym = 23     120 deg rotation - cart. axis [1,-1,-1]      

 cryst.   s(23) = (     1          0         -1      )
                  (     0          0         -1      )
                  (     0          1         -1      )

 cart.    s(23) = (  0.0000000  0.0000000 -1.0000000 )
                  ( -1.0000000  0.0000000  0.0000000 )
                  (  0.0000000  1.0000000  0.0000000 )


      isym = 24     120 deg rotation - cart. axis [-1,-1,1]      

 cryst.   s(24) = (     0         -1          0      )
                  (     1         -1          0      )
                  (     0         -1          1      )

 cart.    s(24) = (  0.0000000  0.0000000 -1.0000000 )
                  (  1.0000000  0.0000000  0.0000000 )
                  (  0.0000000 -1.0000000  0.0000000 )


      isym = 25     inversion                                    

 cryst.   s(25) = (    -1          0          0      )    f =( -0.2500000 )
                  (     0         -1          0      )       ( -0.2500000 )
                  (     0          0         -1      )       ( -0.2500000 )

 cart.    s(25) = ( -1.0000000  0.0000000  0.0000000 )    f =( -0.3535534 )
                  (  0.0000000 -1.0000000  0.0000000 )       ( -0.3535534 )
                  (  0.0000000  0.0000000 -1.0000000 )       ( -0.3535534 )


      isym = 26     inv. 180 deg rotation - cart. axis [0,0,1]   

 cryst.   s(26) = (     0         -1          1      )    f =( -0.2500000 )
                  (    -1          0          1      )       ( -0.2500000 )
                  (     0          0          1      )       ( -0.2500000 )

 cart.    s(26) = (  1.0000000  0.0000000  0.0000000 )    f =( -0.3535534 )
                  (  0.0000000  1.0000000  0.0000000 )       ( -0.3535534 )
                  (  0.0000000  0.0000000 -1.0000000 )       ( -0.3535534 )


      isym = 27     inv. 180 deg rotation - cart. axis [0,1,0]   

 cryst.   s(27) = (     0          1         -1      )    f =( -0.2500000 )
                  (     0          1          0      )       ( -0.2500000 )
                  (    -1          1          0      )       ( -0.2500000 )

 cart.    s(27) = (  1.0000000  0.0000000  0.0000000 )    f =( -0.3535534 )
                  (  0.0000000 -1.0000000  0.0000000 )       ( -0.3535534 )
                  (  0.0000000  0.0000000  1.0000000 )       ( -0.3535534 )


      isym = 28     inv. 180 deg rotation - cart. axis [1,0,0]   

 cryst.   s(28) = (     1          0          0      )    f =( -0.2500000 )
                  (     1          0         -1      )       ( -0.2500000 )
                  (     1         -1          0      )       ( -0.2500000 )

 cart.    s(28) = ( -1.0000000  0.0000000  0.0000000 )    f =( -0.3535534 )
                  (  0.0000000  1.0000000  0.0000000 )       ( -0.3535534 )
                  (  0.0000000  0.0000000  1.0000000 )       ( -0.3535534 )


      isym = 29     inv. 180 deg rotation - cart. axis [1,1,0]   

 cryst.   s(29) = (     1          0         -1      )
                  (     0          1         -1      )
                  (     0          0         -1      )

 cart.    s(29) = (  0.0000000 -1.0000000  0.0000000 )
                  ( -1.0000000  0.0000000  0.0000000 )
                  (  0.0000000  0.0000000  1.0000000 )


      isym = 30     inv. 180 deg rotation - cart. axis [1,-1,0]  

 cryst.   s(30) = (     0          1          0      )
                  (     1          0          0      )
                  (     0          0          1      )

 cart.    s(30) = (  0.0000000  1.0000000  0.0000000 )
                  (  1.0000000  0.0000000  0.0000000 )
                  (  0.0000000  0.0000000  1.0000000 )


      isym = 31     inv.  90 deg rotation - cart. axis [0,0,-1]  

 cryst.   s(31) = (     0         -1          0      )
                  (     0         -1          1      )
                  (     1         -1          0      )

 cart.    s(31) = (  0.0000000 -1.0000000  0.0000000 )
                  (  1.0000000  0.0000000  0.0000000 )
                  (  0.0000000  0.0000000 -1.0000000 )


      isym = 32     inv.  90 deg rotation - cart. axis [0,0,1]   

 cryst.   s(32) = (    -1          0          1      )
                  (    -1          0          0      )
                  (    -1          1          0      )

 cart.    s(32) = (  0.0000000  1.0000000  0.0000000 )
                  ( -1.0000000  0.0000000  0.0000000 )
                  (  0.0000000  0.0000000 -1.0000000 )


      isym = 33     inv. 180 deg rotation - cart. axis [1,0,1]   

 cryst.   s(33) = (     1         -1          0      )
                  (     0         -1          0      )
                  (     0         -1          1      )

 cart.    s(33) = (  0.0000000  0.0000000 -1.0000000 )
                  (  0.0000000  1.0000000  0.0000000 )
                  ( -1.0000000  0.0000000  0.0000000 )


      isym = 34     inv. 180 deg rotation - cart. axis [-1,0,1]  

 cryst.   s(34) = (     0          0          1      )
                  (     0          1          0      )
                  (     1          0          0      )

 cart.    s(34) = (  0.0000000  0.0000000  1.0000000 )
                  (  0.0000000  1.0000000  0.0000000 )
                  (  1.0000000  0.0000000  0.0000000 )


      isym = 35     inv.  90 deg rotation - cart. axis [0,1,0]   

 cryst.   s(35) = (     0          0         -1      )
                  (     1          0         -1      )
                  (     0          1         -1      )

 cart.    s(35) = (  0.0000000  0.0000000 -1.0000000 )
                  (  0.0000000 -1.0000000  0.0000000 )
                  (  1.0000000  0.0000000  0.0000000 )


      isym = 36     inv.  90 deg rotation - cart. axis [0,-1,0]  

 cryst.   s(36) = (    -1          1          0      )
                  (    -1          0          1      )
                  (    -1          0          0      )

 cart.    s(36) = (  0.0000000  0.0000000  1.0000000 )
                  (  0.0000000 -1.0000000  0.0000000 )
                  ( -1.0000000  0.0000000  0.0000000 )


      isym = 37     inv. 180 deg rotation - cart. axis [0,1,1]   

 cryst.   s(37) = (    -1          0          0      )
                  (    -1          1          0      )
                  (    -1          0          1      )

 cart.    s(37) = (  1.0000000  0.0000000  0.0000000 )
                  (  0.0000000  0.0000000 -1.0000000 )
                  (  0.0000000 -1.0000000  0.0000000 )


      isym = 38     inv. 180 deg rotation - cart. axis [0,1,-1]  

 cryst.   s(38) = (     1          0          0      )
                  (     0          0          1      )
                  (     0          1          0      )

 cart.    s(38) = (  1.0000000  0.0000000  0.0000000 )
                  (  0.0000000  0.0000000  1.0000000 )
                  (  0.0000000  1.0000000  0.0000000 )


      isym = 39     inv.  90 deg rotation - cart. axis [-1,0,0]  

 cryst.   s(39) = (     0          1         -1      )
                  (     0          0         -1      )
                  (     1          0         -1      )

 cart.    s(39) = ( -1.0000000  0.0000000  0.0000000 )
                  (  0.0000000  0.0000000 -1.0000000 )
                  (  0.0000000  1.0000000  0.0000000 )


      isym = 40     inv.  90 deg rotation - cart. axis [1,0,0]   

 cryst.   s(40) = (     0         -1          1      )
                  (     1         -1          0      )
                  (     0         -1          0      )

 cart.    s(40) = ( -1.0000000  0.0000000  0.0000000 )
                  (  0.0000000  0.0000000  1.0000000 )
                  (  0.0000000 -1.0000000  0.0000000 )


      isym = 41     inv. 120 deg rotation - cart. axis [-1,-1,-1]

 cryst.   s(41) = (     0          0         -1      )    f =( -0.2500000 )
                  (    -1          0          0      )       ( -0.2500000 )
                  (     0         -1          0      )       ( -0.2500000 )

 cart.    s(41) = (  0.0000000 -1.0000000  0.0000000 )    f =( -0.3535534 )
                  (  0.0000000  0.0000000 -1.0000000 )       ( -0.3535534 )
                  ( -1.0000000  0.0000000  0.0000000 )       ( -0.3535534 )


      isym = 42     inv. 120 deg rotation - cart. axis [-1,1,1]  

 cryst.   s(42) = (    -1          1          0      )    f =( -0.2500000 )
                  (     0          1         -1      )       ( -0.2500000 )
                  (     0          1          0      )       ( -0.2500000 )

 cart.    s(42) = (  0.0000000  1.0000000  0.0000000 )    f =( -0.3535534 )
                  (  0.0000000  0.0000000 -1.0000000 )       ( -0.3535534 )
                  (  1.0000000  0.0000000  0.0000000 )       ( -0.3535534 )


      isym = 43     inv. 120 deg rotation - cart. axis [1,1,-1]  

 cryst.   s(43) = (     1         -1          0      )    f =( -0.2500000 )
                  (     1          0          0      )       ( -0.2500000 )
                  (     1          0         -1      )       ( -0.2500000 )

 cart.    s(43) = (  0.0000000 -1.0000000  0.0000000 )    f =( -0.3535534 )
                  (  0.0000000  0.0000000  1.0000000 )       ( -0.3535534 )
                  (  1.0000000  0.0000000  0.0000000 )       ( -0.3535534 )


      isym = 44     inv. 120 deg rotation - cart. axis [1,-1,1]  

 cryst.   s(44) = (     0          0          1      )    f =( -0.2500000 )
                  (     0         -1          1      )       ( -0.2500000 )
                  (    -1          0          1      )       ( -0.2500000 )

 cart.    s(44) = (  0.0000000  1.0000000  0.0000000 )    f =( -0.3535534 )
                  (  0.0000000  0.0000000  1.0000000 )       ( -0.3535534 )
                  ( -1.0000000  0.0000000  0.0000000 )       ( -0.3535534 )


      isym = 45     inv. 120 deg rotation - cart. axis [1,1,1]   

 cryst.   s(45) = (     0         -1          0      )    f =( -0.2500000 )
                  (     0          0         -1      )       ( -0.2500000 )
                  (    -1          0          0      )       ( -0.2500000 )

 cart.    s(45) = (  0.0000000  0.0000000 -1.0000000 )    f =( -0.3535534 )
                  ( -1.0000000  0.0000000  0.0000000 )       ( -0.3535534 )
                  (  0.0000000 -1.0000000  0.0000000 )       ( -0.3535534 )


      isym = 46     inv. 120 deg rotation - cart. axis [-1,1,-1] 

 cryst.   s(46) = (     1          0         -1      )    f =( -0.2500000 )
                  (     1         -1          0      )       ( -0.2500000 )
                  (     1          0          0      )       ( -0.2500000 )

 cart.    s(46) = (  0.0000000  0.0000000 -1.0000000 )    f =( -0.3535534 )
                  (  1.0000000  0.0000000  0.0000000 )       ( -0.3535534 )
                  (  0.0000000  1.0000000  0.0000000 )       ( -0.3535534 )


      isym = 47     inv. 120 deg rotation - cart. axis [1,-1,-1] 

 cryst.   s(47) = (    -1          0          1      )    f =( -0.2500000 )
                  (     0          0          1      )       ( -0.2500000 )
                  (     0         -1          1      )       ( -0.2500000 )

 cart.    s(47) = (  0.0000000  0.0000000  1.0000000 )    f =( -0.3535534 )
                  (  1.0000000  0.0000000  0.0000000 )       ( -0.3535534 )
                  (  0.0000000 -1.0000000  0.0000000 )       ( -0.3535534 )


      isym = 48     inv. 120 deg rotation - cart. axis [-1,-1,1] 

 cryst.   s(48) = (     0          1          0      )    f =( -0.2500000 )
                  (    -1          1          0      )       ( -0.2500000 )
                  (     0          1         -1      )       ( -0.2500000 )

 cart.    s(48) = (  0.0000000  0.0000000  1.0000000 )    f =( -0.3535534 )
                  ( -1.0000000  0.0000000  0.0000000 )       ( -0.3535534 )
                  (  0.0000000  1.0000000  0.0000000 )       ( -0.3535534 )


     point group O_h (m-3m) 
     there are 10 classes
     the character table:

       E     8C3   3C2   6C4   6C2'  i     8S6   3s_h  6S4   6s_d 
A_1g   1.00  1.00  1.00  1.00  1.00  1.00  1.00  1.00  1.00  1.00
A_2g   1.00  1.00  1.00 -1.00 -1.00  1.00  1.00  1.00 -1.00 -1.00
E_g    2.00 -1.00  2.00  0.00  0.00  2.00 -1.00  2.00  0.00  0.00
T_1g   3.00  0.00 -1.00  1.00 -1.00  3.00  0.00 -1.00  1.00 -1.00
T_2g   3.00  0.00 -1.00 -1.00  1.00  3.00  0.00 -1.00 -1.00  1.00
A_1u   1.00  1.00  1.00  1.00  1.00 -1.00 -1.00 -1.00 -1.00 -1.00
A_2u   1.00  1.00  1.00 -1.00 -1.00 -1.00 -1.00 -1.00  1.00  1.00
E_u    2.00 -1.00  2.00  0.00  0.00 -2.00  1.00 -2.00  0.00  0.00
T_1u   3.00  0.00 -1.00  1.00 -1.00 -3.00  0.00  1.00 -1.00  1.00
T_2u   3.00  0.00 -1.00 -1.00  1.00 -3.00  0.00  1.00  1.00 -1.00

     the symmetry operations in each class and the name of the first element:

     E        1
          identity                                               
     8C3     17   19   20   18   24   21   22   23
          120 deg rotation - cart. axis [-1,-1,-1]               
     3C2      2    4    3
          180 deg rotation - cart. axis [0,0,1]                  
     6C4      7    8   15   16   12   11
           90 deg rotation - cart. axis [0,0,-1]                 
     6C2'     5    6   14   13   10    9
          180 deg rotation - cart. axis [1,1,0]                  
     i       25
          inversion                                              
     8S6     41   43   44   42   48   45   46   47
          inv. 120 deg rotation - cart. axis [-1,-1,-1]          
     3s_h    26   28   27
          inv. 180 deg rotation - cart. axis [0,0,1]             
     6S4     31   32   39   40   36   35
          inv.  90 deg rotation - cart. axis [0,0,-1]            
     6s_d    29   30   38   37   34   33
          inv. 180 deg rotation - cart. axis [1,1,0]             

   Cartesian axes

     site n.     atom                  positions (alat units)
         1        Si     tau(   1) = (   1.0606602   1.0606602   1.0606602  )
         2        Si     tau(   2) = (   0.7071068   0.7071068   0.7071068  )

   Crystallographic axes

     site n.     atom                  positions (cryst. coord.)
         1        Si     tau(   1) = (  0.7500000  0.7500000  0.7500000  )
         2        Si     tau(   2) = (  0.5000000  0.5000000  0.5000000  )

     number of k points=   142  Gaussian smearing, width (Ry)=  0.0005
                       cart. coord. in units 2pi/alat
        k(    1) = (   0.0000000   0.0000000   0.0000000), wk =   0.0140845
        k(    2) = (   0.0000000   0.0282843   0.0000000), wk =   0.0140845
        k(    3) = (   0.0000000   0.0565685   0.0000000), wk =   0.0140845
        k(    4) = (   0.0000000   0.0848528   0.0000000), wk =   0.0140845
        k(    5) = (   0.0000000   0.1131371   0.0000000), wk =   0.0140845
        k(    6) = (   0.0000000   0.1414214   0.0000000), wk =   0.0140845
        k(    7) = (   0.0000000   0.1697056   0.0000000), wk =   0.0140845
        k(    8) = (   0.0000000   0.1979899   0.0000000), wk =   0.0140845
        k(    9) = (   0.0000000   0.2262742   0.0000000), wk =   0.0140845
        k(   10) = (   0.0000000   0.2545584   0.0000000), wk =   0.0140845
        k(   11) = (   0.0000000   0.2828427   0.0000000), wk =   0.0140845
        k(   12) = (   0.0000000   0.3111270   0.0000000), wk =   0.0140845
        k(   13) = (   0.0000000   0.3394113   0.0000000), wk =   0.0140845
        k(   14) = (   0.0000000   0.3676955   0.0000000), wk =   0.0140845
        k(   15) = (   0.0000000   0.3959798   0.0000000), wk =   0.0140845
        k(   16) = (   0.0000000   0.4242641   0.0000000), wk =   0.0140845
        k(   17) = (   0.0000000   0.4525483   0.0000000), wk =   0.0140845
        k(   18) = (   0.0000000   0.4808326   0.0000000), wk =   0.0140845
        k(   19) = (   0.0000000   0.5091169   0.0000000), wk =   0.0140845
        k(   20) = (   0.0000000   0.5374012   0.0000000), wk =   0.0140845
        k(   21) = (   0.0000000   0.5656854   0.0000000), wk =   0.0140845
        k(   22) = (   0.0000000   0.5939697   0.0000000), wk =   0.0140845
        k(   23) = (   0.0000000   0.6222540   0.0000000), wk =   0.0140845
        k(   24) = (   0.0000000   0.6505382   0.0000000), wk =   0.0140845
        k(   25) = (   0.0000000   0.6788225   0.0000000), wk =   0.0140845
        k(   26) = (   0.0000000   0.7071068   0.0000000), wk =   0.0140845
        k(   27) = (   0.0117851   0.7071068   0.0117851), wk =   0.0140845
        k(   28) = (   0.0235702   0.7071068   0.0235702), wk =   0.0140845
        k(   29) = (   0.0353553   0.7071068   0.0353553), wk =   0.0140845
        k(   30) = (   0.0471405   0.7071068   0.0471405), wk =   0.0140845
        k(   31) = (   0.0589256   0.7071068   0.0589256), wk =   0.0140845
        k(   32) = (   0.0707107   0.7071068   0.0707107), wk =   0.0140845
        k(   33) = (   0.0824958   0.7071068   0.0824958), wk =   0.0140845
        k(   34) = (   0.0942809   0.7071068   0.0942809), wk =   0.0140845
        k(   35) = (   0.1060660   0.7071068   0.1060660), wk =   0.0140845
        k(   36) = (   0.1178511   0.7071068   0.1178511), wk =   0.0140845
        k(   37) = (   0.1296362   0.7071068   0.1296362), wk =   0.0140845
        k(   38) = (   0.1414214   0.7071068   0.1414214), wk =   0.0140845
        k(   39) = (   0.1532065   0.7071068   0.1532065), wk =   0.0140845
        k(   40) = (   0.1649916   0.7071068   0.1649916), wk =   0.0140845
        k(   41) = (   0.1767767   0.7071068   0.1767767), wk =   0.0140845
        k(   42) = (   0.5303301   0.5303301   0.0000000), wk =   0.0140845
        k(   43) = (   0.5151778   0.5151778   0.0000000), wk =   0.0140845
        k(   44) = (   0.5000255   0.5000255   0.0000000), wk =   0.0140845
        k(   45) = (   0.4848732   0.4848732   0.0000000), wk =   0.0140845
        k(   46) = (   0.4697209   0.4697209   0.0000000), wk =   0.0140845
        k(   47) = (   0.4545686   0.4545686   0.0000000), wk =   0.0140845
        k(   48) = (   0.4394164   0.4394164   0.0000000), wk =   0.0140845
        k(   49) = (   0.4242641   0.4242641   0.0000000), wk =   0.0140845
        k(   50) = (   0.4091118   0.4091118   0.0000000), wk =   0.0140845
        k(   51) = (   0.3939595   0.3939595   0.0000000), wk =   0.0140845
        k(   52) = (   0.3788072   0.3788072   0.0000000), wk =   0.0140845
        k(   53) = (   0.3636549   0.3636549   0.0000000), wk =   0.0140845
        k(   54) = (   0.3485026   0.3485026   0.0000000), wk =   0.0140845
        k(   55) = (   0.3333503   0.3333503   0.0000000), wk =   0.0140845
        k(   56) = (   0.3181981   0.3181981   0.0000000), wk =   0.0140845
        k(   57) = (   0.3030458   0.3030458   0.0000000), wk =   0.0140845
        k(   58) = (   0.2878935   0.2878935   0.0000000), wk =   0.0140845
        k(   59) = (   0.2727412   0.2727412   0.0000000), wk =   0.0140845
        k(   60) = (   0.2575889   0.2575889   0.0000000), wk =   0.0140845
        k(   61) = (   0.2424366   0.2424366   0.0000000), wk =   0.0140845
        k(   62) = (   0.2272843   0.2272843   0.0000000), wk =   0.0140845
        k(   63) = (   0.2121320   0.2121320   0.0000000), wk =   0.0140845
        k(   64) = (   0.1969797   0.1969797   0.0000000), wk =   0.0140845
        k(   65) = (   0.1818275   0.1818275   0.0000000), wk =   0.0140845
        k(   66) = (   0.1666752   0.1666752   0.0000000), wk =   0.0140845
        k(   67) = (   0.1515229   0.1515229   0.0000000), wk =   0.0140845
        k(   68) = (   0.1363706   0.1363706   0.0000000), wk =   0.0140845
        k(   69) = (   0.1212183   0.1212183   0.0000000), wk =   0.0140845
        k(   70) = (   0.1060660   0.1060660   0.0000000), wk =   0.0140845
        k(   71) = (   0.0909137   0.0909137   0.0000000), wk =   0.0140845
        k(   72) = (   0.0757614   0.0757614   0.0000000), wk =   0.0140845
        k(   73) = (   0.0606092   0.0606092   0.0000000), wk =   0.0140845
        k(   74) = (   0.0454569   0.0454569   0.0000000), wk =   0.0140845
        k(   75) = (   0.0303046   0.0303046   0.0000000), wk =   0.0140845
        k(   76) = (   0.0151523   0.0151523   0.0000000), wk =   0.0140845
        k(   77) = (   0.0000000   0.0000000   0.0000000), wk =   0.0140845
        k(   78) = (   0.0176777   0.0176777   0.0176777), wk =   0.0140845
        k(   79) = (   0.0353553   0.0353553   0.0353553), wk =   0.0140845
        k(   80) = (   0.0530330   0.0530330   0.0530330), wk =   0.0140845
        k(   81) = (   0.0707107   0.0707107   0.0707107), wk =   0.0140845
        k(   82) = (   0.0883883   0.0883883   0.0883883), wk =   0.0140845
        k(   83) = (   0.1060660   0.1060660   0.1060660), wk =   0.0140845
        k(   84) = (   0.1237437   0.1237437   0.1237437), wk =   0.0140845
        k(   85) = (   0.1414214   0.1414214   0.1414214), wk =   0.0140845
        k(   86) = (   0.1590990   0.1590990   0.1590990), wk =   0.0140845
        k(   87) = (   0.1767767   0.1767767   0.1767767), wk =   0.0140845
        k(   88) = (   0.1944544   0.1944544   0.1944544), wk =   0.0140845
        k(   89) = (   0.2121320   0.2121320   0.2121320), wk =   0.0140845
        k(   90) = (   0.2298097   0.2298097   0.2298097), wk =   0.0140845
        k(   91) = (   0.2474874   0.2474874   0.2474874), wk =   0.0140845
        k(   92) = (   0.2651650   0.2651650   0.2651650), wk =   0.0140845
        k(   93) = (   0.2828427   0.2828427   0.2828427), wk =   0.0140845
        k(   94) = (   0.3005204   0.3005204   0.3005204), wk =   0.0140845
        k(   95) = (   0.3181981   0.3181981   0.3181981), wk =   0.0140845
        k(   96) = (   0.3358757   0.3358757   0.3358757), wk =   0.0140845
        k(   97) = (   0.3535534   0.3535534   0.3535534), wk =   0.0140845
        k(   98) = (   0.3535534   0.3653385   0.3417683), wk =   0.0140845
        k(   99) = (   0.3535534   0.3771236   0.3299832), wk =   0.0140845
        k(  100) = (   0.3535534   0.3889087   0.3181981), wk =   0.0140845
        k(  101) = (   0.3535534   0.4006938   0.3064129), wk =   0.0140845
        k(  102) = (   0.3535534   0.4124790   0.2946278), wk =   0.0140845
        k(  103) = (   0.3535534   0.4242641   0.2828427), wk =   0.0140845
        k(  104) = (   0.3535534   0.4360492   0.2710576), wk =   0.0140845
        k(  105) = (   0.3535534   0.4478343   0.2592725), wk =   0.0140845
        k(  106) = (   0.3535534   0.4596194   0.2474874), wk =   0.0140845
        k(  107) = (   0.3535534   0.4714045   0.2357023), wk =   0.0140845
        k(  108) = (   0.3535534   0.4831896   0.2239171), wk =   0.0140845
        k(  109) = (   0.3535534   0.4949747   0.2121320), wk =   0.0140845
        k(  110) = (   0.3535534   0.5067599   0.2003469), wk =   0.0140845
        k(  111) = (   0.3535534   0.5185450   0.1885618), wk =   0.0140845
        k(  112) = (   0.3535534   0.5303301   0.1767767), wk =   0.0140845
        k(  113) = (   0.3535534   0.5421152   0.1649916), wk =   0.0140845
        k(  114) = (   0.3535534   0.5539003   0.1532065), wk =   0.0140845
        k(  115) = (   0.3535534   0.5656854   0.1414214), wk =   0.0140845
        k(  116) = (   0.3535534   0.5774705   0.1296362), wk =   0.0140845
        k(  117) = (   0.3535534   0.5892557   0.1178511), wk =   0.0140845
        k(  118) = (   0.3535534   0.6010408   0.1060660), wk =   0.0140845
        k(  119) = (   0.3535534   0.6128259   0.0942809), wk =   0.0140845
        k(  120) = (   0.3535534   0.6246110   0.0824958), wk =   0.0140845
        k(  121) = (   0.3535534   0.6363961   0.0707107), wk =   0.0140845
        k(  122) = (   0.3535534   0.6481812   0.0589256), wk =   0.0140845
        k(  123) = (   0.3535534   0.6599663   0.0471405), wk =   0.0140845
        k(  124) = (   0.3535534   0.6717514   0.0353553), wk =   0.0140845
        k(  125) = (   0.3535534   0.6835366   0.0235702), wk =   0.0140845
        k(  126) = (   0.3535534   0.6953217   0.0117851), wk =   0.0140845
        k(  127) = (   0.3535534   0.7071068   0.0000000), wk =   0.0140845
        k(  128) = (   0.3299832   0.7071068   0.0000000), wk =   0.0140845
        k(  129) = (   0.3064129   0.7071068  -0.0000000), wk =   0.0140845
        k(  130) = (   0.2828427   0.7071068   0.0000000), wk =   0.0140845
        k(  131) = (   0.2592725   0.7071068   0.0000000), wk =   0.0140845
        k(  132) = (   0.2357023   0.7071068   0.0000000), wk =   0.0140845
        k(  133) = (   0.2121320   0.7071068  -0.0000000), wk =   0.0140845
        k(  134) = (   0.1885618   0.7071068   0.0000000), wk =   0.0140845
        k(  135) = (   0.1649916   0.7071068   0.0000000), wk =   0.0140845
        k(  136) = (   0.1414214   0.7071068   0.0000000), wk =   0.0140845
        k(  137) = (   0.1178511   0.7071068   0.0000000), wk =   0.0140845
        k(  138) = (   0.0942809   0.7071068   0.0000000), wk =   0.0140845
        k(  139) = (   0.0707107   0.7071068  -0.0000000), wk =   0.0140845
        k(  140) = (   0.0471405   0.7071068   0.0000000), wk =   0.0140845
        k(  141) = (   0.0235702   0.7071068   0.0000000), wk =   0.0140845
        k(  142) = (   0.0000000   0.7071068   0.0000000), wk =   0.0140845

                       cryst. coord.
        k(    1) = (   0.0000000   0.0000000   0.0000000), wk =   0.0140845
        k(    2) = (   0.0200000   0.0000000   0.0200000), wk =   0.0140845
        k(    3) = (   0.0400000   0.0000000   0.0400000), wk =   0.0140845
        k(    4) = (   0.0600000   0.0000000   0.0600000), wk =   0.0140845
        k(    5) = (   0.0800000   0.0000000   0.0800000), wk =   0.0140845
        k(    6) = (   0.1000000   0.0000000   0.1000000), wk =   0.0140845
        k(    7) = (   0.1200000   0.0000000   0.1200000), wk =   0.0140845
        k(    8) = (   0.1400000   0.0000000   0.1400000), wk =   0.0140845
        k(    9) = (   0.1600000   0.0000000   0.1600000), wk =   0.0140845
        k(   10) = (   0.1800000   0.0000000   0.1800000), wk =   0.0140845
        k(   11) = (   0.2000000   0.0000000   0.2000000), wk =   0.0140845
        k(   12) = (   0.2200000   0.0000000   0.2200000), wk =   0.0140845
        k(   13) = (   0.2400000   0.0000000   0.2400000), wk =   0.0140845
        k(   14) = (   0.2600000   0.0000000   0.2600000), wk =   0.0140845
        k(   15) = (   0.2800000   0.0000000   0.2800000), wk =   0.0140845
        k(   16) = (   0.3000000   0.0000000   0.3000000), wk =   0.0140845
        k(   17) = (   0.3200000   0.0000000   0.3200000), wk =   0.0140845
        k(   18) = (   0.3400000   0.0000000   0.3400000), wk =   0.0140845
        k(   19) = (   0.3600000   0.0000000   0.3600000), wk =   0.0140845
        k(   20) = (   0.3800000   0.0000000   0.3800000), wk =   0.0140845
        k(   21) = (   0.4000000   0.0000000   0.4000000), wk =   0.0140845
        k(   22) = (   0.4200000   0.0000000   0.4200000), wk =   0.0140845
        k(   23) = (   0.4400000   0.0000000   0.4400000), wk =   0.0140845
        k(   24) = (   0.4600000   0.0000000   0.4600000), wk =   0.0140845
        k(   25) = (   0.4800000   0.0000000   0.4800000), wk =   0.0140845
        k(   26) = (   0.5000000   0.0000000   0.5000000), wk =   0.0140845
        k(   27) = (   0.5083333   0.0166667   0.5083333), wk =   0.0140845
        k(   28) = (   0.5166667   0.0333333   0.5166667), wk =   0.0140845
        k(   29) = (   0.5250000   0.0500000   0.5250000), wk =   0.0140845
        k(   30) = (   0.5333333   0.0666667   0.5333333), wk =   0.0140845
        k(   31) = (   0.5416667   0.0833333   0.5416667), wk =   0.0140845
        k(   32) = (   0.5500000   0.1000000   0.5500000), wk =   0.0140845
        k(   33) = (   0.5583333   0.1166667   0.5583333), wk =   0.0140845
        k(   34) = (   0.5666667   0.1333333   0.5666667), wk =   0.0140845
        k(   35) = (   0.5750000   0.1500000   0.5750000), wk =   0.0140845
        k(   36) = (   0.5833333   0.1666667   0.5833333), wk =   0.0140845
        k(   37) = (   0.5916667   0.1833333   0.5916667), wk =   0.0140845
        k(   38) = (   0.6000000   0.2000000   0.6000000), wk =   0.0140845
        k(   39) = (   0.6083333   0.2166667   0.6083333), wk =   0.0140845
        k(   40) = (   0.6166667   0.2333333   0.6166667), wk =   0.0140845
        k(   41) = (   0.6250000   0.2500000   0.6250000), wk =   0.0140845
        k(   42) = (   0.3750000   0.3750000   0.7500000), wk =   0.0140845
        k(   43) = (   0.3642857   0.3642857   0.7285714), wk =   0.0140845
        k(   44) = (   0.3535714   0.3535714   0.7071429), wk =   0.0140845
        k(   45) = (   0.3428571   0.3428571   0.6857143), wk =   0.0140845
        k(   46) = (   0.3321429   0.3321429   0.6642857), wk =   0.0140845
        k(   47) = (   0.3214286   0.3214286   0.6428571), wk =   0.0140845
        k(   48) = (   0.3107143   0.3107143   0.6214286), wk =   0.0140845
        k(   49) = (   0.3000000   0.3000000   0.6000000), wk =   0.0140845
        k(   50) = (   0.2892857   0.2892857   0.5785714), wk =   0.0140845
        k(   51) = (   0.2785714   0.2785714   0.5571429), wk =   0.0140845
        k(   52) = (   0.2678571   0.2678571   0.5357143), wk =   0.0140845
        k(   53) = (   0.2571429   0.2571429   0.5142857), wk =   0.0140845
        k(   54) = (   0.2464286   0.2464286   0.4928571), wk =   0.0140845
        k(   55) = (   0.2357143   0.2357143   0.4714286), wk =   0.0140845
        k(   56) = (   0.2250000   0.2250000   0.4500000), wk =   0.0140845
        k(   57) = (   0.2142857   0.2142857   0.4285714), wk =   0.0140845
        k(   58) = (   0.2035714   0.2035714   0.4071429), wk =   0.0140845
        k(   59) = (   0.1928571   0.1928571   0.3857143), wk =   0.0140845
        k(   60) = (   0.1821429   0.1821429   0.3642857), wk =   0.0140845
        k(   61) = (   0.1714286   0.1714286   0.3428571), wk =   0.0140845
        k(   62) = (   0.1607143   0.1607143   0.3214286), wk =   0.0140845
        k(   63) = (   0.1500000   0.1500000   0.3000000), wk =   0.0140845
        k(   64) = (   0.1392857   0.1392857   0.2785714), wk =   0.0140845
        k(   65) = (   0.1285714   0.1285714   0.2571429), wk =   0.0140845
        k(   66) = (   0.1178571   0.1178571   0.2357143), wk =   0.0140845
        k(   67) = (   0.1071429   0.1071429   0.2142857), wk =   0.0140845
        k(   68) = (   0.0964286   0.0964286   0.1928571), wk =   0.0140845
        k(   69) = (   0.0857143   0.0857143   0.1714286), wk =   0.0140845
        k(   70) = (   0.0750000   0.0750000   0.1500000), wk =   0.0140845
        k(   71) = (   0.0642857   0.0642857   0.1285714), wk =   0.0140845
        k(   72) = (   0.0535714   0.0535714   0.1071429), wk =   0.0140845
        k(   73) = (   0.0428571   0.0428571   0.0857143), wk =   0.0140845
        k(   74) = (   0.0321429   0.0321429   0.0642857), wk =   0.0140845
        k(   75) = (   0.0214286   0.0214286   0.0428571), wk =   0.0140845
        k(   76) = (   0.0107143   0.0107143   0.0214286), wk =   0.0140845
        k(   77) = (   0.0000000   0.0000000   0.0000000), wk =   0.0140845
        k(   78) = (   0.0250000   0.0250000   0.0250000), wk =   0.0140845
        k(   79) = (   0.0500000   0.0500000   0.0500000), wk =   0.0140845
        k(   80) = (   0.0750000   0.0750000   0.0750000), wk =   0.0140845
        k(   81) = (   0.1000000   0.1000000   0.1000000), wk =   0.0140845
        k(   82) = (   0.1250000   0.1250000   0.1250000), wk =   0.0140845
        k(   83) = (   0.1500000   0.1500000   0.1500000), wk =   0.0140845
        k(   84) = (   0.1750000   0.1750000   0.1750000), wk =   0.0140845
        k(   85) = (   0.2000000   0.2000000   0.2000000), wk =   0.0140845
        k(   86) = (   0.2250000   0.2250000   0.2250000), wk =   0.0140845
        k(   87) = (   0.2500000   0.2500000   0.2500000), wk =   0.0140845
        k(   88) = (   0.2750000   0.2750000   0.2750000), wk =   0.0140845
        k(   89) = (   0.3000000   0.3000000   0.3000000), wk =   0.0140845
        k(   90) = (   0.3250000   0.3250000   0.3250000), wk =   0.0140845
        k(   91) = (   0.3500000   0.3500000   0.3500000), wk =   0.0140845
        k(   92) = (   0.3750000   0.3750000   0.3750000), wk =   0.0140845
        k(   93) = (   0.4000000   0.4000000   0.4000000), wk =   0.0140845
        k(   94) = (   0.4250000   0.4250000   0.4250000), wk =   0.0140845
        k(   95) = (   0.4500000   0.4500000   0.4500000), wk =   0.0140845
        k(   96) = (   0.4750000   0.4750000   0.4750000), wk =   0.0140845
        k(   97) = (   0.5000000   0.5000000   0.5000000), wk =   0.0140845
        k(   98) = (   0.5000000   0.4916667   0.5083333), wk =   0.0140845
        k(   99) = (   0.5000000   0.4833333   0.5166667), wk =   0.0140845
        k(  100) = (   0.5000000   0.4750000   0.5250000), wk =   0.0140845
        k(  101) = (   0.5000000   0.4666667   0.5333333), wk =   0.0140845
        k(  102) = (   0.5000000   0.4583333   0.5416667), wk =   0.0140845
        k(  103) = (   0.5000000   0.4500000   0.5500000), wk =   0.0140845
        k(  104) = (   0.5000000   0.4416667   0.5583333), wk =   0.0140845
        k(  105) = (   0.5000000   0.4333333   0.5666667), wk =   0.0140845
        k(  106) = (   0.5000000   0.4250000   0.5750000), wk =   0.0140845
        k(  107) = (   0.5000000   0.4166667   0.5833333), wk =   0.0140845
        k(  108) = (   0.5000000   0.4083333   0.5916667), wk =   0.0140845
        k(  109) = (   0.5000000   0.4000000   0.6000000), wk =   0.0140845
        k(  110) = (   0.5000000   0.3916667   0.6083333), wk =   0.0140845
        k(  111) = (   0.5000000   0.3833333   0.6166667), wk =   0.0140845
        k(  112) = (   0.5000000   0.3750000   0.6250000), wk =   0.0140845
        k(  113) = (   0.5000000   0.3666667   0.6333333), wk =   0.0140845
        k(  114) = (   0.5000000   0.3583333   0.6416667), wk =   0.0140845
        k(  115) = (   0.5000000   0.3500000   0.6500000), wk =   0.0140845
        k(  116) = (   0.5000000   0.3416667   0.6583333), wk =   0.0140845
        k(  117) = (   0.5000000   0.3333333   0.6666667), wk =   0.0140845
        k(  118) = (   0.5000000   0.3250000   0.6750000), wk =   0.0140845
        k(  119) = (   0.5000000   0.3166667   0.6833333), wk =   0.0140845
        k(  120) = (   0.5000000   0.3083333   0.6916667), wk =   0.0140845
        k(  121) = (   0.5000000   0.3000000   0.7000000), wk =   0.0140845
        k(  122) = (   0.5000000   0.2916667   0.7083333), wk =   0.0140845
        k(  123) = (   0.5000000   0.2833333   0.7166667), wk =   0.0140845
        k(  124) = (   0.5000000   0.2750000   0.7250000), wk =   0.0140845
        k(  125) = (   0.5000000   0.2666667   0.7333333), wk =   0.0140845
        k(  126) = (   0.5000000   0.2583333   0.7416667), wk =   0.0140845
        k(  127) = (   0.5000000   0.2500000   0.7500000), wk =   0.0140845
        k(  128) = (   0.5000000   0.2333333   0.7333333), wk =   0.0140845
        k(  129) = (   0.5000000   0.2166667   0.7166667), wk =   0.0140845
        k(  130) = (   0.5000000   0.2000000   0.7000000), wk =   0.0140845
        k(  131) = (   0.5000000   0.1833333   0.6833333), wk =   0.0140845
        k(  132) = (   0.5000000   0.1666667   0.6666667), wk =   0.0140845
        k(  133) = (   0.5000000   0.1500000   0.6500000), wk =   0.0140845
        k(  134) = (   0.5000000   0.1333333   0.6333333), wk =   0.0140845
        k(  135) = (   0.5000000   0.1166667   0.6166667), wk =   0.0140845
        k(  136) = (   0.5000000   0.1000000   0.6000000), wk =   0.0140845
        k(  137) = (   0.5000000   0.0833333   0.5833333), wk =   0.0140845
        k(  138) = (   0.5000000   0.0666667   0.5666667), wk =   0.0140845
        k(  139) = (   0.5000000   0.0500000   0.5500000), wk =   0.0140845
        k(  140) = (   0.5000000   0.0333333   0.5333333), wk =   0.0140845
        k(  141) = (   0.5000000   0.0166667   0.5166667), wk =   0.0140845
        k(  142) = (   0.5000000   0.0000000   0.5000000), wk =   0.0140845

     Dense  grid:    15009 G-vectors     FFT dimensions: (  36,  36,  36)

     Dynamical RAM for                 wfc:       0.02 MB

     Dynamical RAM for     wfc (w. buffer):       0.02 MB

     Dynamical RAM for           str. fact:       0.02 MB

     Dynamical RAM for           local pot:       0.00 MB

     Dynamical RAM for          nlocal pot:       0.07 MB

     Dynamical RAM for                qrad:       1.19 MB

     Dynamical RAM for          rho,v,vnew:       0.14 MB

     Dynamical RAM for           G-vectors:       0.07 MB

     Dynamical RAM for          h,s,v(r/c):       0.01 MB

     Dynamical RAM for          <psi|beta>:       0.00 MB

     Dynamical RAM for                 psi:       0.03 MB

     Dynamical RAM for                hpsi:       0.03 MB

     Dynamical RAM for                spsi:       0.03 MB

     Dynamical RAM for      wfcinit/wfcrot:       0.03 MB

     Dynamical RAM for           addusdens:       3.07 MB

     Estimated static dynamical RAM per process >       1.69 MB

     Estimated max dynamical RAM per process >       4.76 MB

     Estimated total dynamical RAM >      66.61 MB

     Check: negative core charge=   -0.000001

     The potential is recalculated from file :
     ./temp/silicon.save/charge-density

     Starting wfcs are    8 randomized atomic wfcs
     Checking if some PAW data can be deallocated... 

     Band Structure Calculation
     Davidson diagonalization with overlap

     Computing kpt #:     1  of   142
     total cpu time spent up to now is        0.4 secs

     Computing kpt #:     2  of   142
     total cpu time spent up to now is        0.4 secs

     Computing kpt #:     3  of   142
     total cpu time spent up to now is        0.5 secs

     Computing kpt #:     4  of   142
     total cpu time spent up to now is        0.5 secs

     Computing kpt #:     5  of   142
     total cpu time spent up to now is        0.6 secs

     Computing kpt #:     6  of   142
     total cpu time spent up to now is        0.6 secs

     Computing kpt #:     7  of   142
     total cpu time spent up to now is        0.6 secs

     Computing kpt #:     8  of   142
     total cpu time spent up to now is        0.7 secs

     Computing kpt #:     9  of   142
     total cpu time spent up to now is        0.7 secs

     Computing kpt #:    10  of   142
     total cpu time spent up to now is        0.8 secs

     Computing kpt #:    11  of   142
     total cpu time spent up to now is        0.8 secs

     Computing kpt #:    12  of   142
     total cpu time spent up to now is        0.9 secs

     Computing kpt #:    13  of   142
     total cpu time spent up to now is        0.9 secs

     Computing kpt #:    14  of   142
     total cpu time spent up to now is        1.0 secs

     Computing kpt #:    15  of   142
     total cpu time spent up to now is        1.0 secs

     Computing kpt #:    16  of   142
     total cpu time spent up to now is        1.0 secs

     Computing kpt #:    17  of   142
     total cpu time spent up to now is        1.1 secs

     Computing kpt #:    18  of   142
     total cpu time spent up to now is        1.1 secs

     Computing kpt #:    19  of   142
     total cpu time spent up to now is        1.1 secs

     Computing kpt #:    20  of   142
     total cpu time spent up to now is        1.2 secs

     Computing kpt #:    21  of   142
     total cpu time spent up to now is        1.2 secs

     Computing kpt #:    22  of   142
     total cpu time spent up to now is        1.3 secs

     Computing kpt #:    23  of   142
     total cpu time spent up to now is        1.3 secs

     Computing kpt #:    24  of   142
     total cpu time spent up to now is        1.3 secs

     Computing kpt #:    25  of   142
     total cpu time spent up to now is        1.4 secs

     Computing kpt #:    26  of   142
     total cpu time spent up to now is        1.4 secs

     Computing kpt #:    27  of   142
     total cpu time spent up to now is        1.5 secs

     Computing kpt #:    28  of   142
     total cpu time spent up to now is        1.5 secs

     Computing kpt #:    29  of   142
     total cpu time spent up to now is        1.6 secs

     Computing kpt #:    30  of   142
     total cpu time spent up to now is        1.6 secs

     Computing kpt #:    31  of   142
     total cpu time spent up to now is        1.7 secs

     Computing kpt #:    32  of   142
     total cpu time spent up to now is        1.7 secs

     Computing kpt #:    33  of   142
     total cpu time spent up to now is        1.8 secs

     Computing kpt #:    34  of   142
     total cpu time spent up to now is        1.8 secs

     Computing kpt #:    35  of   142
     total cpu time spent up to now is        1.9 secs

     Computing kpt #:    36  of   142
     total cpu time spent up to now is        2.0 secs

     Computing kpt #:    37  of   142
     total cpu time spent up to now is        2.0 secs

     Computing kpt #:    38  of   142
     c_bands:  1 eigenvalues not converged
     total cpu time spent up to now is        2.1 secs

     Computing kpt #:    39  of   142
     total cpu time spent up to now is        2.2 secs

     Computing kpt #:    40  of   142
     total cpu time spent up to now is        2.3 secs

     Computing kpt #:    41  of   142
     total cpu time spent up to now is        2.3 secs

     Computing kpt #:    42  of   142
     total cpu time spent up to now is        2.4 secs

     Computing kpt #:    43  of   142
     total cpu time spent up to now is        2.5 secs

     Computing kpt #:    44  of   142
     total cpu time spent up to now is        2.5 secs

     Computing kpt #:    45  of   142
     total cpu time spent up to now is        2.6 secs

     Computing kpt #:    46  of   142
     total cpu time spent up to now is        2.7 secs

     Computing kpt #:    47  of   142
     total cpu time spent up to now is        2.7 secs

     Computing kpt #:    48  of   142
     total cpu time spent up to now is        2.8 secs

     Computing kpt #:    49  of   142
     total cpu time spent up to now is        2.8 secs

     Computing kpt #:    50  of   142
     total cpu time spent up to now is        2.9 secs

     Computing kpt #:    51  of   142
     total cpu time spent up to now is        3.0 secs

     Computing kpt #:    52  of   142
     total cpu time spent up to now is        3.0 secs

     Computing kpt #:    53  of   142
     total cpu time spent up to now is        3.1 secs

     Computing kpt #:    54  of   142
     total cpu time spent up to now is        3.1 secs

     Computing kpt #:    55  of   142
     total cpu time spent up to now is        3.2 secs

     Computing kpt #:    56  of   142
     total cpu time spent up to now is        3.2 secs

     Computing kpt #:    57  of   142
     total cpu time spent up to now is        3.2 secs

     Computing kpt #:    58  of   142
     total cpu time spent up to now is        3.3 secs

     Computing kpt #:    59  of   142
     total cpu time spent up to now is        3.3 secs

     Computing kpt #:    60  of   142
     total cpu time spent up to now is        3.4 secs

     Computing kpt #:    61  of   142
     total cpu time spent up to now is        3.4 secs

     Computing kpt #:    62  of   142
     total cpu time spent up to now is        3.5 secs

     Computing kpt #:    63  of   142
     total cpu time spent up to now is        3.5 secs

     Computing kpt #:    64  of   142
     total cpu time spent up to now is        3.6 secs

     Computing kpt #:    65  of   142
     total cpu time spent up to now is        3.6 secs

     Computing kpt #:    66  of   142
     total cpu time spent up to now is        3.6 secs

     Computing kpt #:    67  of   142
     total cpu time spent up to now is        3.7 secs

     Computing kpt #:    68  of   142
     total cpu time spent up to now is        3.7 secs

     Computing kpt #:    69  of   142
     total cpu time spent up to now is        3.8 secs

     Computing kpt #:    70  of   142
     total cpu time spent up to now is        3.8 secs

     Computing kpt #:    71  of   142
     total cpu time spent up to now is        3.9 secs

     Computing kpt #:    72  of   142
     total cpu time spent up to now is        3.9 secs

     Computing kpt #:    73  of   142
     total cpu time spent up to now is        4.0 secs

     Computing kpt #:    74  of   142
     total cpu time spent up to now is        4.0 secs

     Computing kpt #:    75  of   142
     total cpu time spent up to now is        4.0 secs

     Computing kpt #:    76  of   142
     total cpu time spent up to now is        4.1 secs

     Computing kpt #:    77  of   142
     total cpu time spent up to now is        4.1 secs

     Computing kpt #:    78  of   142
     total cpu time spent up to now is        4.2 secs

     Computing kpt #:    79  of   142
     total cpu time spent up to now is        4.2 secs

     Computing kpt #:    80  of   142
     total cpu time spent up to now is        4.2 secs

     Computing kpt #:    81  of   142
     total cpu time spent up to now is        4.3 secs

     Computing kpt #:    82  of   142
     total cpu time spent up to now is        4.3 secs

     Computing kpt #:    83  of   142
     total cpu time spent up to now is        4.4 secs

     Computing kpt #:    84  of   142
     total cpu time spent up to now is        4.4 secs

     Computing kpt #:    85  of   142
     total cpu time spent up to now is        4.4 secs

     Computing kpt #:    86  of   142
     total cpu time spent up to now is        4.5 secs

     Computing kpt #:    87  of   142
     total cpu time spent up to now is        4.5 secs

     Computing kpt #:    88  of   142
     total cpu time spent up to now is        4.6 secs

     Computing kpt #:    89  of   142
     total cpu time spent up to now is        4.7 secs

     Computing kpt #:    90  of   142
     total cpu time spent up to now is        4.7 secs

     Computing kpt #:    91  of   142
     total cpu time spent up to now is        4.8 secs

     Computing kpt #:    92  of   142
     total cpu time spent up to now is        4.8 secs

     Computing kpt #:    93  of   142
     total cpu time spent up to now is        4.9 secs

     Computing kpt #:    94  of   142
     total cpu time spent up to now is        4.9 secs

     Computing kpt #:    95  of   142
     total cpu time spent up to now is        5.0 secs

     Computing kpt #:    96  of   142
     total cpu time spent up to now is        5.0 secs

     Computing kpt #:    97  of   142
     total cpu time spent up to now is        5.0 secs

     Computing kpt #:    98  of   142
     total cpu time spent up to now is        5.1 secs

     Computing kpt #:    99  of   142
     total cpu time spent up to now is        5.1 secs

     Computing kpt #:   100  of   142
     total cpu time spent up to now is        5.1 secs

     Computing kpt #:   101  of   142
     total cpu time spent up to now is        5.2 secs

     Computing kpt #:   102  of   142
     total cpu time spent up to now is        5.2 secs

     Computing kpt #:   103  of   142
     total cpu time spent up to now is        5.3 secs

     Computing kpt #:   104  of   142
     total cpu time spent up to now is        5.3 secs

     Computing kpt #:   105  of   142
     total cpu time spent up to now is        5.4 secs

     Computing kpt #:   106  of   142
     total cpu time spent up to now is        5.4 secs

     Computing kpt #:   107  of   142
     total cpu time spent up to now is        5.5 secs

     Computing kpt #:   108  of   142
     total cpu time spent up to now is        5.5 secs

     Computing kpt #:   109  of   142
     total cpu time spent up to now is        5.6 secs

     Computing kpt #:   110  of   142
     total cpu time spent up to now is        5.6 secs

     Computing kpt #:   111  of   142
     total cpu time spent up to now is        5.7 secs

     Computing kpt #:   112  of   142
     total cpu time spent up to now is        5.7 secs

     Computing kpt #:   113  of   142
     total cpu time spent up to now is        5.8 secs

     Computing kpt #:   114  of   142
     total cpu time spent up to now is        5.9 secs

     Computing kpt #:   115  of   142
     total cpu time spent up to now is        5.9 secs

     Computing kpt #:   116  of   142
     total cpu time spent up to now is        6.0 secs

     Computing kpt #:   117  of   142
     total cpu time spent up to now is        6.0 secs

     Computing kpt #:   118  of   142
     total cpu time spent up to now is        6.1 secs

     Computing kpt #:   119  of   142
     total cpu time spent up to now is        6.1 secs

     Computing kpt #:   120  of   142
     total cpu time spent up to now is        6.2 secs

     Computing kpt #:   121  of   142
     total cpu time spent up to now is        6.2 secs

     Computing kpt #:   122  of   142
     total cpu time spent up to now is        6.3 secs

     Computing kpt #:   123  of   142
     total cpu time spent up to now is        6.3 secs

     Computing kpt #:   124  of   142
     total cpu time spent up to now is        6.4 secs

     Computing kpt #:   125  of   142
     total cpu time spent up to now is        6.4 secs

     Computing kpt #:   126  of   142
     total cpu time spent up to now is        6.4 secs

     Computing kpt #:   127  of   142
     total cpu time spent up to now is        6.5 secs

     Computing kpt #:   128  of   142
     total cpu time spent up to now is        6.5 secs

     Computing kpt #:   129  of   142
     total cpu time spent up to now is        6.6 secs

     Computing kpt #:   130  of   142
     total cpu time spent up to now is        6.6 secs

     Computing kpt #:   131  of   142
     total cpu time spent up to now is        6.6 secs

     Computing kpt #:   132  of   142
     total cpu time spent up to now is        6.7 secs

     Computing kpt #:   133  of   142
     total cpu time spent up to now is        6.7 secs

     Computing kpt #:   134  of   142
     total cpu time spent up to now is        6.8 secs

     Computing kpt #:   135  of   142
     total cpu time spent up to now is        6.8 secs

     Computing kpt #:   136  of   142
     total cpu time spent up to now is        6.8 secs

     Computing kpt #:   137  of   142
     total cpu time spent up to now is        6.9 secs

     Computing kpt #:   138  of   142
     total cpu time spent up to now is        6.9 secs

     Computing kpt #:   139  of   142
     total cpu time spent up to now is        7.0 secs

     Computing kpt #:   140  of   142
     total cpu time spent up to now is        7.0 secs

     Computing kpt #:   141  of   142
     total cpu time spent up to now is        7.1 secs

     Computing kpt #:   142  of   142
     total cpu time spent up to now is        7.1 secs

     ethr =  1.25E-11,  avg # of iterations = 43.2

     total cpu time spent up to now is        7.1 secs

     End of band structure calculation

          k = 0.0000 0.0000 0.0000 (  1837 PWs)   bands (ev):

    -5.8381   6.1441   6.1441   6.1441   8.6664   8.6664   8.6664   9.4421

          k = 0.0000 0.0283 0.0000 (  1857 PWs)   bands (ev):

    -5.8311   6.0955   6.1132   6.1132   8.6480   8.7059   8.7059   9.4897

          k = 0.0000 0.0566 0.0000 (  1861 PWs)   bands (ev):

    -5.8100   5.9579   6.0260   6.0260   8.5945   8.8188   8.8188   9.6232

          k = 0.0000 0.0849 0.0000 (  1868 PWs)   bands (ev):

    -5.7749   5.7500   5.8956   5.8956   8.5098   8.9920   8.9920   9.8190

          k = 0.0000 0.1131 0.0000 (  1868 PWs)   bands (ev):

    -5.7259   5.4921   5.7362   5.7362   8.3997   9.2111   9.2111  10.0476

          k = 0.0000 0.1414 0.0000 (  1860 PWs)   bands (ev):

    -5.6629   5.2001   5.5596   5.5596   8.2706   9.4641   9.4641  10.2732

          k = 0.0000 0.1697 0.0000 (  1864 PWs)   bands (ev):

    -5.5860   4.8853   5.3744   5.3744   8.1285   9.7422   9.7422  10.4479

          k = 0.0000 0.1980 0.0000 (  1872 PWs)   bands (ev):

    -5.4952   4.5552   5.1865   5.1865   7.9787  10.0392  10.0392  10.5106

          k = 0.0000 0.2263 0.0000 (  1876 PWs)   bands (ev):

    -5.3908   4.2147   5.0001   5.0001   7.8258  10.3509  10.3509  10.4248

          k = 0.0000 0.2546 0.0000 (  1860 PWs)   bands (ev):

    -5.2727   3.8671   4.8179   4.8179   7.6737  10.2182  10.6740  10.6740

          k = 0.0000 0.2828 0.0000 (  1868 PWs)   bands (ev):

    -5.1410   3.5147   4.6420   4.6420   7.5252   9.9441  11.0063  11.0063

          k = 0.0000 0.3111 0.0000 (  1860 PWs)   bands (ev):

    -4.9960   3.1589   4.4738   4.4738   7.3830   9.6411  11.3462  11.3462

          k = 0.0000 0.3394 0.0000 (  1876 PWs)   bands (ev):

    -4.8377   2.8009   4.3146   4.3146   7.2489   9.3309  11.6923  11.6923

          k = 0.0000 0.3677 0.0000 (  1876 PWs)   bands (ev):

    -4.6664   2.4418   4.1651   4.1651   7.1246   9.0252  12.0437  12.0437

          k = 0.0000 0.3960 0.0000 (  1856 PWs)   bands (ev):

    -4.4821   2.0823   4.0259   4.0259   7.0114   8.7307  12.3998  12.3998

          k = 0.0000 0.4243 0.0000 (  1860 PWs)   bands (ev):

    -4.2852   1.7231   3.8976   3.8976   6.9105   8.4515  12.7600  12.7600

          k = 0.0000 0.4525 0.0000 (  1868 PWs)   bands (ev):

    -4.0758   1.3651   3.7806   3.7806   6.8229   8.1900  13.1239  13.1239

          k = 0.0000 0.4808 0.0000 (  1864 PWs)   bands (ev):

    -3.8542   1.0089   3.6752   3.6752   6.7493   7.9476  13.4912  13.4912

          k = 0.0000 0.5091 0.0000 (  1860 PWs)   bands (ev):

    -3.6207   0.6553   3.5817   3.5817   6.6905   7.7254  13.8616  13.8616

          k = 0.0000 0.5374 0.0000 (  1868 PWs)   bands (ev):

    -3.3756   0.3050   3.5003   3.5003   6.6472   7.5236  14.2348  14.2348

          k = 0.0000 0.5657 0.0000 (  1868 PWs)   bands (ev):

    -3.1193  -0.0411   3.4312   3.4312   6.6199   7.3427  14.6100  14.6100

          k = 0.0000 0.5940 0.0000 (  1868 PWs)   bands (ev):

    -2.8520  -0.3823   3.3744   3.3744   6.6093   7.1824  14.9857  14.9857

          k = 0.0000 0.6223 0.0000 (  1836 PWs)   bands (ev):

    -2.5744  -0.7179   3.3302   3.3302   6.6158   7.0426  15.3585  15.3585

          k = 0.0000 0.6505 0.0000 (  1856 PWs)   bands (ev):

    -2.2868  -1.0471   3.2985   3.2985   6.6400   6.9231  15.7193  15.7193

          k = 0.0000 0.6788 0.0000 (  1864 PWs)   bands (ev):

    -1.9897  -1.3692   3.2795   3.2795   6.6824   6.8235  16.0370  16.0370

          k = 0.0000 0.7071 0.0000 (  1868 PWs)   bands (ev):

    -1.6836  -1.6836   3.2732   3.2732   6.7434   6.7434  16.1926  16.1926

          k = 0.0118 0.7071 0.0118 (  1868 PWs)   bands (ev):

    -1.6846  -1.6810   3.2557   3.2751   6.7457   6.7688  16.1652  16.1778

          k = 0.0236 0.7071 0.0236 (  1858 PWs)   bands (ev):

    -1.6875  -1.6731   3.2050   3.2810   6.7525   6.8435  16.0866  16.1341

          k = 0.0354 0.7071 0.0354 (  1854 PWs)   bands (ev):

    -1.6925  -1.6600   3.1256   3.2908   6.7639   6.9631  15.9659  16.0642

          k = 0.0471 0.7071 0.0471 (  1842 PWs)   bands (ev):

    -1.6999  -1.6416   3.0235   3.3046   6.7798   7.1217  15.8137  15.9715

          k = 0.0589 0.7071 0.0589 (  1844 PWs)   bands (ev):

    -1.7100  -1.6180   2.9053   3.3222   6.8002   7.3133  15.6391  15.8599

          k = 0.0707 0.7071 0.0707 (  1848 PWs)   bands (ev):

    -1.7233  -1.5891   2.7768   3.3436   6.8251   7.5322  15.4492  15.7332

          k = 0.0825 0.7071 0.0825 (  1856 PWs)   bands (ev):

    -1.7403  -1.5550   2.6433   3.3689   6.8544   7.7737  15.2493  15.5946

          k = 0.0943 0.7071 0.0943 (  1856 PWs)   bands (ev):

    -1.7618  -1.5156   2.5092   3.3980   6.8882   8.0341  15.0429  15.4469

          k = 0.1061 0.7071 0.1061 (  1856 PWs)   bands (ev):

    -1.7884  -1.4710   2.3781   3.4308   6.9264   8.3102  14.8327  15.2923

          k = 0.1179 0.7071 0.1179 (  1858 PWs)   bands (ev):

    -1.8207  -1.4212   2.2529   3.4673   6.9688   8.5998  14.6204  15.1328

          k = 0.1296 0.7071 0.1296 (  1854 PWs)   bands (ev):

    -1.8596  -1.3662   2.1362   3.5074   7.0156   8.9009  14.4076  14.9698

          k = 0.1414 0.7071 0.1414 (  1854 PWs)   bands (ev):

    -1.9056  -1.3060   2.0299   3.5512   7.0665   9.2119  14.1951  14.7475

          k = 0.1532 0.7071 0.1532 (  1854 PWs)   bands (ev):

    -1.9594  -1.2406   1.9358   3.5984   7.1215   9.5314  13.9839  14.5240

          k = 0.1650 0.7071 0.1650 (  1850 PWs)   bands (ev):

    -2.0214  -1.1700   1.8550   3.6490   7.1806   9.8582  13.7744  14.3046

          k = 0.1768 0.7071 0.1768 (  1850 PWs)   bands (ev):

    -2.0917  -1.0942   1.7884   3.7030   7.2435  10.1911  13.5673  14.0903

          k = 0.5303 0.5303 0.0000 (  1850 PWs)   bands (ev):

    -2.0917  -1.0942   1.7884   3.7030   7.2435  10.1911  13.5673  14.0903

          k = 0.5152 0.5152 0.0000 (  1860 PWs)   bands (ev):

    -2.1942  -0.9892   1.7246   3.7770   7.3300  10.6257  13.3049  13.8234

          k = 0.5000 0.5000 0.0000 (  1868 PWs)   bands (ev):

    -2.3099  -0.8757   1.6854   3.8562   7.4224  11.0636  13.0475  13.5694

          k = 0.4849 0.4849 0.0000 (  1866 PWs)   bands (ev):

    -2.4375  -0.7538   1.6704   3.9401   7.5205  11.4965  12.7957  13.3358

          k = 0.4697 0.4697 0.0000 (  1866 PWs)   bands (ev):

    -2.5756  -0.6234   1.6785   4.0285   7.6238  11.9010  12.5500  13.1448

          k = 0.4546 0.4546 0.0000 (  1866 PWs)   bands (ev):

    -2.7222  -0.4846   1.7083   4.1210   7.7318  12.1970  12.3105  13.0751

          k = 0.4394 0.4394 0.0000 (  1862 PWs)   bands (ev):

    -2.8754  -0.3375   1.7582   4.2173   7.8439  12.0776  12.2434  13.0972

          k = 0.4243 0.4243 0.0000 (  1858 PWs)   bands (ev):

    -3.0334  -0.1821   1.8265   4.3168   7.9594  11.8515  12.1115  12.9172

          k = 0.4091 0.4091 0.0000 (  1864 PWs)   bands (ev):

    -3.1945  -0.0184   1.9117   4.4191   8.0775  11.6323  11.9265  12.7458

          k = 0.3940 0.3940 0.0000 (  1861 PWs)   bands (ev):

    -3.3570   0.1534   2.0122   4.5237   8.1972  11.4204  11.7285  12.5837

          k = 0.3788 0.3788 0.0000 (  1855 PWs)   bands (ev):

    -3.5195   0.3333   2.1266   4.6299   8.3173  11.2158  11.5293  12.4323

          k = 0.3637 0.3637 0.0000 (  1859 PWs)   bands (ev):

    -3.6809   0.5213   2.2537   4.7371   8.4363  11.0186  11.3332  12.2925

          k = 0.3485 0.3485 0.0000 (  1863 PWs)   bands (ev):

    -3.8401   0.7172   2.3924   4.8447   8.5526  10.8289  11.1422  12.1656

          k = 0.3334 0.3334 0.0000 (  1865 PWs)   bands (ev):

    -3.9962   0.9209   2.5417   4.9517   8.6643  10.6469  10.9571  12.0531

          k = 0.3182 0.3182 0.0000 (  1865 PWs)   bands (ev):

    -4.1484   1.1324   2.7007   5.0576   8.7693  10.4725  10.7785  11.9562

          k = 0.3030 0.3030 0.0000 (  1867 PWs)   bands (ev):

    -4.2962   1.3516   2.8684   5.1615   8.8652  10.3059  10.6068  11.8761

          k = 0.2879 0.2879 0.0000 (  1865 PWs)   bands (ev):

    -4.4389   1.5782   3.0441   5.2625   8.9498  10.1472  10.4419  11.8138

          k = 0.2727 0.2727 0.0000 (  1873 PWs)   bands (ev):

    -4.5762   1.8121   3.2269   5.3600   9.0211   9.9963  10.2841  11.7693

          k = 0.2576 0.2576 0.0000 (  1881 PWs)   bands (ev):

    -4.7075   2.0532   3.4159   5.4530   9.0776   9.8534  10.1334  11.7414

          k = 0.2424 0.2424 0.0000 (  1873 PWs)   bands (ev):

    -4.8326   2.3012   3.6104   5.5410   9.1186   9.7185   9.9896  11.7271

          k = 0.2273 0.2273 0.0000 (  1879 PWs)   bands (ev):

    -4.9512   2.5558   3.8093   5.6234   9.1444   9.5916   9.8529  11.7208

          k = 0.2121 0.2121 0.0000 (  1883 PWs)   bands (ev):

    -5.0630   2.8166   4.0117   5.6996   9.1561   9.4727   9.7229  11.7141

          k = 0.1970 0.1970 0.0000 (  1875 PWs)   bands (ev):

    -5.1678   3.0834   4.2164   5.7694   9.1554   9.3620   9.5997  11.6949

          k = 0.1818 0.1818 0.0000 (  1867 PWs)   bands (ev):

    -5.2655   3.3555   4.4223   5.8325   9.1446   9.2593   9.4832  11.6480

          k = 0.1667 0.1667 0.0000 (  1871 PWs)   bands (ev):

    -5.3558   3.6323   4.6278   5.8889   9.1258   9.1648   9.3731  11.5576

          k = 0.1515 0.1515 0.0000 (  1871 PWs)   bands (ev):

    -5.4387   3.9129   4.8312   5.9387   9.0784   9.1010   9.2694  11.4127

          k = 0.1364 0.1364 0.0000 (  1875 PWs)   bands (ev):

    -5.5140   4.1961   5.0307   5.9821   9.0002   9.0717   9.1720  11.2135

          k = 0.1212 0.1212 0.0000 (  1867 PWs)   bands (ev):

    -5.5816   4.4804   5.2240   6.0194   8.9302   9.0390   9.0809  10.9712

          k = 0.1061 0.1061 0.0000 (  1863 PWs)   bands (ev):

    -5.6415   4.7636   5.4084   6.0510   8.8684   8.9963   9.0033  10.7025

          k = 0.0909 0.0909 0.0000 (  1863 PWs)   bands (ev):

    -5.6935   5.0423   5.5809   6.0773   8.8149   8.9186   8.9643  10.4248

          k = 0.0758 0.0758 0.0000 (  1869 PWs)   bands (ev):

    -5.7375   5.3119   5.7377   6.0987   8.7695   8.8486   8.9203  10.1548

          k = 0.0606 0.0606 0.0000 (  1871 PWs)   bands (ev):

    -5.7737   5.5653   5.8750   6.1155   8.7324   8.7875   8.8690   9.9092

          k = 0.0455 0.0455 0.0000 (  1871 PWs)   bands (ev):

    -5.8018   5.7919   5.9883   6.1283   8.7035   8.7368   8.8086   9.7051

          k = 0.0303 0.0303 0.0000 (  1865 PWs)   bands (ev):

    -5.8220   5.9767   6.0733   6.1371   8.6829   8.6985   8.7431   9.5570

          k = 0.0152 0.0152 0.0000 (  1863 PWs)   bands (ev):

    -5.8341   6.1002   6.1262   6.1424   8.6705   8.6745   8.6883   9.4702

          k = 0.0000 0.0000 0.0000 (  1837 PWs)   bands (ev):

    -5.8381   6.1441   6.1441   6.1441   8.6664   8.6664   8.6664   9.4421

          k = 0.0177 0.0177 0.0177 (  1865 PWs)   bands (ev):

    -5.8299   6.0453   6.1296   6.1296   8.6874   8.6874   8.6909   9.5007

          k = 0.0354 0.0354 0.0354 (  1871 PWs)   bands (ev):

    -5.8052   5.7814   6.0880   6.0880   8.7229   8.7482   8.7482   9.6868

          k = 0.0530 0.0530 0.0530 (  1874 PWs)   bands (ev):

    -5.7642   5.4130   6.0239   6.0239   8.7141   8.8423   8.8423   9.9916

          k = 0.0707 0.0707 0.0707 (  1874 PWs)   bands (ev):

    -5.7069   4.9869   5.9433   5.9433   8.6643   8.9609   8.9609  10.3733

          k = 0.0884 0.0884 0.0884 (  1868 PWs)   bands (ev):

    -5.6335   4.5309   5.8521   5.8521   8.5880   9.0936   9.0936  10.7951

          k = 0.1061 0.1061 0.1061 (  1874 PWs)   bands (ev):

    -5.5442   4.0611   5.7553   5.7553   8.4966   9.2297   9.2297  11.2350

          k = 0.1237 0.1237 0.1237 (  1877 PWs)   bands (ev):

    -5.4394   3.5870   5.6570   5.6570   8.3978   9.3580   9.3580  11.6806

          k = 0.1414 0.1414 0.1414 (  1877 PWs)   bands (ev):

    -5.3194   3.1149   5.5602   5.5602   8.2968   9.4685   9.4685  12.1244

          k = 0.1591 0.1591 0.1591 (  1889 PWs)   bands (ev):

    -5.1847   2.6491   5.4672   5.4672   8.1972   9.5530   9.5530  12.5599

          k = 0.1768 0.1768 0.1768 (  1880 PWs)   bands (ev):

    -5.0362   2.1931   5.3796   5.3796   8.1016   9.6072   9.6072  12.9781

          k = 0.1945 0.1945 0.1945 (  1877 PWs)   bands (ev):

    -4.8747   1.7498   5.2985   5.2985   8.0118   9.6314   9.6314  13.3600

          k = 0.2121 0.2121 0.2121 (  1871 PWs)   bands (ev):

    -4.7017   1.3219   5.2249   5.2249   7.9294   9.6300   9.6300  13.6640

          k = 0.2298 0.2298 0.2298 (  1865 PWs)   bands (ev):

    -4.5191   0.9125   5.1591   5.1591   7.8551   9.6097   9.6097  13.8330

          k = 0.2475 0.2475 0.2475 (  1868 PWs)   bands (ev):

    -4.3298   0.5252   5.1017   5.1017   7.7898   9.5778   9.5778  13.8706

          k = 0.2652 0.2652 0.2652 (  1868 PWs)   bands (ev):

    -4.1379   0.1649   5.0529   5.0529   7.7339   9.5408   9.5408  13.8414

          k = 0.2828 0.2828 0.2828 (  1868 PWs)   bands (ev):

    -3.9499  -0.1615   5.0128   5.0128   7.6878   9.5041   9.5041  13.7918

          k = 0.3005 0.3005 0.3005 (  1868 PWs)   bands (ev):

    -3.7756  -0.4438   4.9816   4.9816   7.6518   9.4717   9.4717  13.7427

          k = 0.3182 0.3182 0.3182 (  1871 PWs)   bands (ev):

    -3.6291  -0.6676   4.9593   4.9593   7.6259   9.4467   9.4467  13.7037

          k = 0.3359 0.3359 0.3359 (  1871 PWs)   bands (ev):

    -3.5289  -0.8143   4.9459   4.9459   7.6104   9.4309   9.4309  13.6789

          k = 0.3536 0.3536 0.3536 (  1892 PWs)   bands (ev):

    -3.4929  -0.8658   4.9414   4.9414   7.6052   9.4255   9.4255  13.6705

          k = 0.3536 0.3653 0.3418 (  1876 PWs)   bands (ev):

    -3.4904  -0.8645   4.9173   4.9368   7.6276   9.4208   9.4351  13.6825

          k = 0.3536 0.3771 0.3300 (  1872 PWs)   bands (ev):

    -3.4831  -0.8605   4.8476   4.9228   7.6915   9.4070   9.4644  13.7179

          k = 0.3536 0.3889 0.3182 (  1872 PWs)   bands (ev):

    -3.4710  -0.8538   4.7395   4.8996   7.7888   9.3853   9.5145  13.7740

          k = 0.3536 0.4007 0.3064 (  1872 PWs)   bands (ev):

    -3.4539  -0.8447   4.6017   4.8671   7.9088   9.3574   9.5874  13.8465

          k = 0.3536 0.4125 0.2946 (  1870 PWs)   bands (ev):

    -3.4321  -0.8333   4.4425   4.8253   8.0412   9.3255   9.6852  13.9291

          k = 0.3536 0.4243 0.2828 (  1866 PWs)   bands (ev):

    -3.4054  -0.8197   4.2688   4.7745   8.1770   9.2918   9.8101  14.0127

          k = 0.3536 0.4360 0.2711 (  1864 PWs)   bands (ev):

    -3.3739  -0.8041   4.0860   4.7147   8.3097   9.2586   9.9634  14.0858

          k = 0.3536 0.4478 0.2593 (  1860 PWs)   bands (ev):

    -3.3377  -0.7870   3.8984   4.6461   8.4355   9.2278  10.1450  14.1343

          k = 0.3536 0.4596 0.2475 (  1860 PWs)   bands (ev):

    -3.2967  -0.7688   3.7090   4.5693   8.5529   9.2012  10.3535  14.1449

          k = 0.3536 0.4714 0.2357 (  1862 PWs)   bands (ev):

    -3.2510  -0.7498   3.5204   4.4845   8.6622   9.1803  10.5861  14.1106

          k = 0.3536 0.4832 0.2239 (  1858 PWs)   bands (ev):

    -3.2006  -0.7307   3.3349   4.3923   8.7651   9.1661  10.8398  14.0334

          k = 0.3536 0.4950 0.2121 (  1860 PWs)   bands (ev):

    -3.1456  -0.7122   3.1543   4.2933   8.8632   9.1596  11.1113  13.8583

          k = 0.3536 0.5068 0.2003 (  1856 PWs)   bands (ev):

    -3.0861  -0.6952   2.9803   4.1883   8.9584   9.1612  11.3977  13.6288

          k = 0.3536 0.5185 0.1886 (  1856 PWs)   bands (ev):

    -3.0221  -0.6805   2.8146   4.0780   9.0522   9.1713  11.6966  13.4041

          k = 0.3536 0.5303 0.1768 (  1848 PWs)   bands (ev):

    -2.9537  -0.6695   2.6588   3.9632   9.1457   9.1902  12.0058  13.1845

          k = 0.3536 0.5421 0.1650 (  1858 PWs)   bands (ev):

    -2.8810  -0.6633   2.5148   3.8446   9.2177   9.2400  12.3235  12.9700

          k = 0.3536 0.5539 0.1532 (  1856 PWs)   bands (ev):

    -2.8041  -0.6634   2.3841   3.7233   9.2538   9.3358  12.6482  12.7610

          k = 0.3536 0.5657 0.1414 (  1852 PWs)   bands (ev):

    -2.7230  -0.6712   2.2685   3.5999   9.2984   9.4335  12.5571  12.9511

          k = 0.3536 0.5775 0.1296 (  1856 PWs)   bands (ev):

    -2.6380  -0.6880   2.1696   3.4752   9.3511   9.5334  12.3591  12.7757

          k = 0.3536 0.5893 0.1179 (  1850 PWs)   bands (ev):

    -2.5492  -0.7151   2.0887   3.3501   9.4118   9.6358  12.1671  12.6010

          k = 0.3536 0.6010 0.1061 (  1858 PWs)   bands (ev):

    -2.4568  -0.7533   2.0267   3.2253   9.4801   9.7405  11.9813  12.4280

          k = 0.3536 0.6128 0.0943 (  1858 PWs)   bands (ev):

    -2.3610  -0.8029   1.9841   3.1016   9.5557   9.8474  11.8023  12.2574

          k = 0.3536 0.6246 0.0825 (  1858 PWs)   bands (ev):

    -2.2621  -0.8638   1.9607   2.9798   9.6382   9.9559  11.6309  12.0898

          k = 0.3536 0.6364 0.0707 (  1858 PWs)   bands (ev):

    -2.1603  -0.9353   1.9559   2.8605   9.7271  10.0647  11.4684  11.9257

          k = 0.3536 0.6482 0.0589 (  1860 PWs)   bands (ev):

    -2.0559  -1.0163   1.9686   2.7445   9.8218  10.1716  11.3173  11.7659

          k = 0.3536 0.6600 0.0471 (  1858 PWs)   bands (ev):

    -1.9496  -1.1054   1.9974   2.6325   9.9216  10.2718  11.1826  11.6112

          k = 0.3536 0.6718 0.0354 (  1866 PWs)   bands (ev):

    -1.8416  -1.2012   2.0407   2.5255  10.0251  10.3547  11.0748  11.4628

          k = 0.3536 0.6835 0.0236 (  1866 PWs)   bands (ev):

    -1.7326  -1.3022   2.0971   2.4243  10.1303  10.4006  11.0138  11.3229

          k = 0.3536 0.6953 0.0118 (  1862 PWs)   bands (ev):

    -1.6233  -1.4071   2.1649   2.3297  10.2330  10.3888  11.0203  11.1954

          k = 0.3536 0.7071 0.0000 (  1856 PWs)   bands (ev):

    -1.5144  -1.5144   2.2429   2.2429  10.3249  10.3249  11.0889  11.0889

          k = 0.3300 0.7071 0.0000 (  1860 PWs)   bands (ev):

    -1.5165  -1.5165   2.2518   2.2518  10.1582  10.1582  11.2650  11.2650

          k = 0.3064 0.7071-0.0000 (  1864 PWs)   bands (ev):

    -1.5225  -1.5225   2.2785   2.2785   9.8393   9.8393  11.6123  11.6123

          k = 0.2828 0.7071 0.0000 (  1856 PWs)   bands (ev):

    -1.5322  -1.5322   2.3221   2.3221   9.4926   9.4926  12.0066  12.0066

          k = 0.2593 0.7071 0.0000 (  1856 PWs)   bands (ev):

    -1.5449  -1.5449   2.3817   2.3817   9.1456   9.1456  12.4202  12.4202

          k = 0.2357 0.7071 0.0000 (  1864 PWs)   bands (ev):

    -1.5600  -1.5600   2.4557   2.4557   8.8070   8.8070  12.8448  12.8448

          k = 0.2121 0.7071-0.0000 (  1852 PWs)   bands (ev):

    -1.5768  -1.5768   2.5421   2.5421   8.4812   8.4812  13.2761  13.2761

          k = 0.1886 0.7071 0.0000 (  1856 PWs)   bands (ev):

    -1.5944  -1.5944   2.6386   2.6386   8.1711   8.1711  13.7112  13.7112

          k = 0.1650 0.7071 0.0000 (  1858 PWs)   bands (ev):

    -1.6120  -1.6120   2.7421   2.7421   7.8799   7.8799  14.1466  14.1466

          k = 0.1414 0.7071 0.0000 (  1854 PWs)   bands (ev):

    -1.6289  -1.6289   2.8491   2.8491   7.6111   7.6111  14.5779  14.5779

          k = 0.1179 0.7071 0.0000 (  1850 PWs)   bands (ev):

    -1.6444  -1.6444   2.9553   2.9553   7.3686   7.3686  14.9979  14.9979

          k = 0.0943 0.7071 0.0000 (  1846 PWs)   bands (ev):

    -1.6579  -1.6579   3.0554   3.0554   7.1575   7.1575  15.3936  15.3936

          k = 0.0707 0.7071-0.0000 (  1846 PWs)   bands (ev):

    -1.6688  -1.6688   3.1434   3.1434   6.9834   6.9834  15.7407  15.7407

          k = 0.0471 0.7071 0.0000 (  1850 PWs)   bands (ev):

    -1.6770  -1.6770   3.2129   3.2129   6.8526   6.8526  16.0015  16.0015

          k = 0.0236 0.7071 0.0000 (  1868 PWs)   bands (ev):

    -1.6819  -1.6819   3.2577   3.2577   6.7711   6.7711  16.1484  16.1484

          k = 0.0000 0.7071 0.0000 (  1868 PWs)   bands (ev):

    -1.6836  -1.6836   3.2732   3.2732   6.7434   6.7434  16.1926  16.1926

     Writing all to output data dir ./temp/silicon.save/ :
     XML data file, pseudopotentials, collected wavefunctions

     init_run     :      0.23s CPU      0.23s WALL (       1 calls)
     electrons    :      6.58s CPU      6.77s WALL (       1 calls)

     Called by init_run:
     wfcinit      :      0.00s CPU      0.00s WALL (       1 calls)
     wfcinit:atom :      0.00s CPU      0.00s WALL (     142 calls)
     wfcinit:wfcr :      0.18s CPU      0.19s WALL (     142 calls)
     potinit      :      0.05s CPU      0.05s WALL (       1 calls)
     hinit0       :      0.16s CPU      0.16s WALL (       1 calls)

     Called by electrons:
     c_bands      :      6.58s CPU      6.77s WALL (       1 calls)
     v_of_rho     :      0.00s CPU      0.00s WALL (       1 calls)
     v_h          :      0.00s CPU      0.00s WALL (       1 calls)
     v_xc         :      0.00s CPU      0.00s WALL (       1 calls)
     newd         :      0.00s CPU      0.00s WALL (       1 calls)
     PAW_pot      :      0.05s CPU      0.05s WALL (       1 calls)

     Called by c_bands:
     init_us_2    :      0.01s CPU      0.01s WALL (     142 calls)
     cegterg      :      6.35s CPU      6.53s WALL (     368 calls)

     Called by sum_band:

     Called by *egterg:
     cdiaghg      :      0.50s CPU      0.52s WALL (    6270 calls)
     cegterg:over :      0.36s CPU      0.37s WALL (    6128 calls)
     cegterg:upda :      0.14s CPU      0.14s WALL (    6128 calls)
     cegterg:last :      0.41s CPU      0.42s WALL (    3936 calls)
     h_psi        :      4.54s CPU      4.67s WALL (    6638 calls)
     s_psi        :      0.38s CPU      0.39s WALL (    6638 calls)
     g_psi        :      0.05s CPU      0.05s WALL (    6128 calls)

     Called by h_psi:
     h_psi:calbec :      0.46s CPU      0.47s WALL (    6638 calls)
     vloc_psi     :      3.67s CPU      3.77s WALL (    6638 calls)
     add_vuspsi   :      0.38s CPU      0.39s WALL (    6638 calls)

     General routines
     calbec       :      0.45s CPU      0.46s WALL (    6638 calls)
     fft          :      0.14s CPU      0.14s WALL (      12 calls)
     fftw         :      3.17s CPU      3.26s WALL (   66504 calls)
     davcio       :      0.00s CPU      0.00s WALL (     284 calls)

     Parallel routines

     PAW routines
     PAW_pot      :      0.05s CPU      0.05s WALL (       1 calls)

     PWSCF        :      7.02s CPU      7.23s WALL


   This run was terminated on:  12:24: 4  23Jan2026            

=------------------------------------------------------------------------------=
   JOB DONE.
=------------------------------------------------------------------------------=
