 &CONTROL
   calculation     = 'vc-relax' 
   outdir          = './temp' 
   pseudo_dir      = './../' 
   prefix          = 'al-1x1x1'  
   verbosity       = 'high' 
   etot_conv_thr   = 1.0D-5 
   forc_conv_thr   = 1.0D-4 
 /
 &SYSTEM
   ibrav           = 1
   A               = 4.03893 
   nat             = 4
   ntyp            = 1
   ecutwfc         = 40 
   ecutrho         = 320 
   occupations     = 'smearing' 
   degauss         = 0.0005 
   smearing        = 'fermi-dirac' 
 /
 &ELECTRONS
   conv_thr        = 1.0D-8 
 /
 &IONS
 /
 &CELL
   press_conv_thr  = 5.0D-2 
   cell_dofree     = 'ibrav' 
 /
ATOMIC_SPECIES
   Al   27.00000  Al.pbesol-n-kjpaw_psl.1.0.0.UPF 
ATOMIC_POSITIONS crystal 
   Al      0.000000000    0.000000000    0.000000000    
   Al      0.000000000    0.500000000    0.500000000    
   Al      0.500000000    0.000000000    0.500000000    
   Al      0.500000000    0.500000000    0.000000000    
K_POINTS automatic 
  10 10 10   0 0 0 

