 &CONTROL
   calculation     = 'vc-relax' 
   outdir          = './temp' 
   pseudo_dir      = './../../pseudos' 
   prefix          = 'graphite' 
   etot_conv_thr   = 1.0D-5 
   forc_conv_thr   = 1.0D-4 
 /
 &SYSTEM
   ibrav           = 4
   A               = 2.4672913551 
   C               = 7.8030729294 
   nat             = 4
   ntyp            = 1
   ecutwfc         = 40 
   ecutrho         = 320 
   occupations     = 'smearing' 
   degauss         = 0.02 
   smearing        = 'gaussian' 
 /
 &ELECTRONS
   conv_thr        = 1.0D-7 
 /
 &IONS
 /
 &CELL
   cell_dofree     = 'ibrav' 
 /
ATOMIC_SPECIES
    C   12.01100  C.pbesol-n-kjpaw_psl.1.0.0.UPF 
ATOMIC_POSITIONS crystal 
    C      0.000000000    0.000000000    0.250000000    
    C      0.000000000    0.000000000    0.750000000    
    C      0.333333333    0.666666666    0.250000000    
    C      0.666666666    0.333333333    0.750000000    
K_POINTS automatic 
  12 12 4   0 0 0 

