 &CONTROL
   calculation     = 'vc-relax' 
   outdir          = './temp' 
   pseudo_dir      = './../' 
   prefix          = 'al-3x3x3-vacancy' 
   verbosity       = 'high' 
   etot_conv_thr   = 1.0D-5 
   forc_conv_thr   = 1.0D-4 
 /
 &SYSTEM
   ibrav           = 1
   A               = 12.0511779786 
   nat             = 107
   ntyp            = 1
   ecutwfc         = 40 
   ecutrho         = 320 
   occupations     = 'smearing' 
   degauss         = 0.0005 
   smearing        = 'fermi-dirac' 
 /
 &ELECTRONS
   conv_thr        = 1.0D-8 
 /
 &IONS
 /
 &CELL
   press_conv_thr  = 5.0D-2 
   cell_dofree     = 'ibrav' 
 /
ATOMIC_SPECIES
   Al   27.00000  Al.pbesol-n-kjpaw_psl.1.0.0.UPF 
ATOMIC_POSITIONS crystal 
   Al      0.000000000    0.000000000    0.333333343    
   Al      0.000000000    0.000000000    0.666666687    
   Al      0.000000000    0.333333343    0.000000000    
   Al      0.000000000    0.333333343    0.333333343    
   Al      0.000000000    0.333333343    0.666666687    
   Al      0.000000000    0.666666687    0.000000000    
   Al      0.000000000    0.666666687    0.333333343    
   Al      0.000000000    0.666666687    0.666666687    
   Al      0.333333343    0.000000000    0.000000000    
   Al      0.333333343    0.000000000    0.333333343    
   Al      0.333333343    0.000000000    0.666666687    
   Al      0.333333343    0.333333343    0.000000000    
   Al      0.333333343    0.333333343    0.333333343    
   Al      0.333333343    0.333333343    0.666666687    
   Al      0.333333343    0.666666687    0.000000000    
   Al      0.333333343    0.666666687    0.333333343    
   Al      0.333333343    0.666666687    0.666666687    
   Al      0.666666687    0.000000000    0.000000000    
   Al      0.666666687    0.000000000    0.333333343    
   Al      0.666666687    0.000000000    0.666666687    
   Al      0.666666687    0.333333343    0.000000000    
   Al      0.666666687    0.333333343    0.333333343    
   Al      0.666666687    0.333333343    0.666666687    
   Al      0.666666687    0.666666687    0.000000000    
   Al      0.666666687    0.666666687    0.333333343    
   Al      0.666666687    0.666666687    0.666666687    
   Al      0.000000000    0.166666672    0.166666672    
   Al      0.000000000    0.166666672    0.500000000    
   Al      0.000000000    0.166666672    0.833333313    
   Al      0.000000000    0.500000000    0.166666672    
   Al      0.000000000    0.500000000    0.500000000    
   Al      0.000000000    0.500000000    0.833333313    
   Al      0.000000000    0.833333313    0.166666672    
   Al      0.000000000    0.833333313    0.500000000    
   Al      0.000000000    0.833333313    0.833333313    
   Al      0.333333343    0.166666672    0.166666672    
   Al      0.333333343    0.166666672    0.500000000    
   Al      0.333333343    0.166666672    0.833333313    
   Al      0.333333343    0.500000000    0.166666672    
   Al      0.333333343    0.500000000    0.500000000    
   Al      0.333333343    0.500000000    0.833333313    
   Al      0.333333343    0.833333313    0.166666672    
   Al      0.333333343    0.833333313    0.500000000    
   Al      0.333333343    0.833333313    0.833333313    
   Al      0.666666687    0.166666672    0.166666672    
   Al      0.666666687    0.166666672    0.500000000    
   Al      0.666666687    0.166666672    0.833333313    
   Al      0.666666687    0.500000000    0.166666672    
   Al      0.666666687    0.500000000    0.500000000    
   Al      0.666666687    0.500000000    0.833333313    
   Al      0.666666687    0.833333313    0.166666672    
   Al      0.666666687    0.833333313    0.500000000    
   Al      0.666666687    0.833333313    0.833333313    
   Al      0.166666672    0.000000000    0.166666672    
   Al      0.166666672    0.000000000    0.500000000    
   Al      0.166666672    0.000000000    0.833333313    
   Al      0.166666672    0.333333343    0.166666672    
   Al      0.166666672    0.333333343    0.500000000    
   Al      0.166666672    0.333333343    0.833333313    
   Al      0.166666672    0.666666687    0.166666672    
   Al      0.166666672    0.666666687    0.500000000    
   Al      0.166666672    0.666666687    0.833333313    
   Al      0.500000000    0.000000000    0.166666672    
   Al      0.500000000    0.000000000    0.500000000    
   Al      0.500000000    0.000000000    0.833333313    
   Al      0.500000000    0.333333343    0.166666672    
   Al      0.500000000    0.333333343    0.500000000    
   Al      0.500000000    0.333333343    0.833333313    
   Al      0.500000000    0.666666687    0.166666672    
   Al      0.500000000    0.666666687    0.500000000    
   Al      0.500000000    0.666666687    0.833333313    
   Al      0.833333313    0.000000000    0.166666672    
   Al      0.833333313    0.000000000    0.500000000    
   Al      0.833333313    0.000000000    0.833333313    
   Al      0.833333313    0.333333343    0.166666672    
   Al      0.833333313    0.333333343    0.500000000    
   Al      0.833333313    0.333333343    0.833333313    
   Al      0.833333313    0.666666687    0.166666672    
   Al      0.833333313    0.666666687    0.500000000    
   Al      0.833333313    0.666666687    0.833333313    
   Al      0.166666672    0.166666672    0.000000000    
   Al      0.166666672    0.166666672    0.333333343    
   Al      0.166666672    0.166666672    0.666666687    
   Al      0.166666672    0.500000000    0.000000000    
   Al      0.166666672    0.500000000    0.333333343    
   Al      0.166666672    0.500000000    0.666666687    
   Al      0.166666672    0.833333313    0.000000000    
   Al      0.166666672    0.833333313    0.333333343    
   Al      0.166666672    0.833333313    0.666666687    
   Al      0.500000000    0.166666672    0.000000000    
   Al      0.500000000    0.166666672    0.333333343    
   Al      0.500000000    0.166666672    0.666666687    
   Al      0.500000000    0.500000000    0.000000000    
   Al      0.500000000    0.500000000    0.333333343    
   Al      0.500000000    0.500000000    0.666666687    
   Al      0.500000000    0.833333313    0.000000000    
   Al      0.500000000    0.833333313    0.333333343    
   Al      0.500000000    0.833333313    0.666666687    
   Al      0.833333313    0.166666672    0.000000000    
   Al      0.833333313    0.166666672    0.333333343    
   Al      0.833333313    0.166666672    0.666666687    
   Al      0.833333313    0.500000000    0.000000000    
   Al      0.833333313    0.500000000    0.333333343    
   Al      0.833333313    0.500000000    0.666666687    
   Al      0.833333313    0.833333313    0.000000000    
   Al      0.833333313    0.833333313    0.333333343    
   Al      0.833333313    0.833333313    0.666666687    
K_POINTS automatic 
  3 3 3   0 0 0 

