 &CONTROL
   calculation     = 'vc-relax' 
   outdir          = './temp' 
   pseudo_dir      = './../' 
   prefix          = 'al-2x2x2-vacancy' 
   verbosity       = 'high' 
   etot_conv_thr   = 1.0D-5 
   forc_conv_thr   = 1.0D-4 
 /
 &SYSTEM
   ibrav           = 1
   A               = 8.0341186524 
   nat             = 31
   ntyp            = 1
   ecutwfc         = 40 
   ecutrho         = 320 
   occupations     = 'smearing' 
   degauss         = 0.0005 
   smearing        = 'fermi-dirac' 
 /
 &ELECTRONS
   conv_thr        = 1.0D-8 
 /
 &IONS
 /
 &CELL
   press_conv_thr  = 5.0D-2 
   cell_dofree     = 'ibrav' 
 /
ATOMIC_SPECIES
   Al   27.00000  Al.pbesol-n-kjpaw_psl.1.0.0.UPF 
ATOMIC_POSITIONS crystal 
   Al      0.000000000    0.000000000    0.500000000    
   Al      0.000000000    0.500000000    0.000000000    
   Al      0.000000000    0.500000000    0.500000000    
   Al      0.500000000    0.000000000    0.000000000    
   Al      0.500000000    0.000000000    0.500000000    
   Al      0.500000000    0.500000000    0.000000000    
   Al      0.500000000    0.500000000    0.500000000    
   Al      0.000000000    0.250000000    0.250000000    
   Al      0.000000000    0.250000000    0.750000000    
   Al      0.000000000    0.750000000    0.250000000    
   Al      0.000000000    0.750000000    0.750000000    
   Al      0.500000000    0.250000000    0.250000000    
   Al      0.500000000    0.250000000    0.750000000    
   Al      0.500000000    0.750000000    0.250000000    
   Al      0.500000000    0.750000000    0.750000000    
   Al      0.250000000    0.000000000    0.250000000    
   Al      0.250000000    0.000000000    0.750000000    
   Al      0.250000000    0.500000000    0.250000000    
   Al      0.250000000    0.500000000    0.750000000    
   Al      0.750000000    0.000000000    0.250000000    
   Al      0.750000000    0.000000000    0.750000000    
   Al      0.750000000    0.500000000    0.250000000    
   Al      0.750000000    0.500000000    0.750000000    
   Al      0.250000000    0.250000000    0.000000000    
   Al      0.250000000    0.250000000    0.500000000    
   Al      0.250000000    0.750000000    0.000000000    
   Al      0.250000000    0.750000000    0.500000000    
   Al      0.750000000    0.250000000    0.000000000    
   Al      0.750000000    0.250000000    0.500000000    
   Al      0.750000000    0.750000000    0.000000000    
   Al      0.750000000    0.750000000    0.500000000    
K_POINTS automatic 
  5 5 5   0 0 0 

