 &CONTROL
   calculation     = 'relax' 
   outdir          = './temp' 
   pseudo_dir      = './../../../pseudos' 
   prefix          = 'mns' 
   verbosity       = 'high' 
   etot_conv_thr   = 1.0D-5 
   forc_conv_thr   = 1.0D-4 
 /
 &SYSTEM
   ibrav           = 0
   nat             = 8
   ntyp            = 5
   ecutwfc         = 30 
   ecutrho         = 150 
   occupations     = 'smearing' 
   degauss         = 0.01 
   smearing        = 'gaussian' 
   nspin           = 2 
   starting_magnetization(1) = 0.2
   starting_magnetization(2) = -0.2
   starting_magnetization(3) = -0.2
   starting_magnetization(4) = 0.2
 /
 &ELECTRONS
   conv_thr        = 1.0D-10 
 /
 &IONS
 /
CELL_PARAMETERS angstrom 
     7.824716568    0.000000000    0.000000000 
     3.912357833    6.776403586    0.000000000 
     1.956178916    1.129400511    3.194427316 
ATOMIC_SPECIES
  Mn1   54.93800  Mn.pbe-spn-kjpaw_psl.0.3.1.UPF 
  Mn2   54.93800  Mn.pbe-spn-kjpaw_psl.0.3.1.UPF 
  Mn3   54.93800  Mn.pbe-spn-kjpaw_psl.0.3.1.UPF 
  Mn4   54.93800  Mn.pbe-spn-kjpaw_psl.0.3.1.UPF 
    S   32.06500  S.pbe-n-kjpaw_psl.1.0.0.UPF 
ATOMIC_POSITIONS crystal 
  Mn1      0.375000000    0.375000000    0.750000000    
  Mn2      0.375000000    0.875000000    0.750000000    
  Mn3      0.875000000    0.375000000    0.750000000    
  Mn4      0.875000000    0.875000000    0.750000000    
    S      0.000000000    0.000000000    0.000000000    
    S      0.000000000    0.500000000    0.000000000    
    S      0.500000000    0.000000000    0.000000000    
    S      0.500000000    0.500000000    0.000000000    
K_POINTS automatic 
  3 3 5   0 0 0 

