 &DOS
   prefix          = 'fe' 
   outdir          = './temp/' 
   fildos          = 'dos.dat' 
 /

