 INFO
nunit      1    1    1
unit   cell
celltype   primcell
shape   parapipedal
 END_INFO
 DIM-GROUP
           3           7
 PRIMVEC
    0.0000000000    2.7163599450    2.7163599450
    2.7163599450    0.0000000000    2.7163599450
    2.7163599450    2.7163599450    0.0000000000
 CONVVEC
    0.0000000000    2.7163599450    2.7163599450
    2.7163599450    0.0000000000    2.7163599450
    2.7163599450    2.7163599450    0.0000000000
 PRIMCOORD
           2           1
 14      4.0745390470     4.0745390470     4.0745390470     0.0000000000     0.0000000000     0.0000000000
 14      2.7163593650     2.7163593650     2.7163593650    -0.0000000000    -0.0000000000    -0.0000000000
 CONVCOORD
           2           1
 14      4.0745390470     4.0745390470     4.0745390470
 14      2.7163593650     2.7163593650     2.7163593650
 RECIP-PRIMVEC
   -0.1840698619    0.1840698619    0.1840698619

    0.1840698619   -0.1840698619    0.1840698619

    0.1840698619    0.1840698619   -0.1840698619

 RECIP-CONVVEC
   -0.1840698619    0.1840698619    0.1840698619

    0.1840698619   -0.1840698619    0.1840698619

    0.1840698619    0.1840698619   -0.1840698619

 WIGNER-SEITZ-PRIMCELL
           4
 -0.1358180E+01 -0.1358180E+01 -0.1358180E+01  -0.0000000E+00 -0.7071068E+00 -0.7071068E+00
  0.0000000E+00  0.0000000E+00 -0.2716360E+01  -0.0000000E+00 -0.7071068E+00 -0.7071068E+00
  0.1358180E+01 -0.1358180E+01 -0.1358180E+01  -0.0000000E+00 -0.7071068E+00 -0.7071068E+00
 -0.0000000E+00 -0.2716360E+01 -0.0000000E+00  -0.0000000E+00 -0.7071068E+00 -0.7071068E+00
           4
  0.2716360E+01  0.0000000E+00  0.0000000E+00   0.7071068E+00  0.0000000E+00 -0.7071068E+00
  0.1358180E+01 -0.1358180E+01 -0.1358180E+01   0.7071068E+00  0.0000000E+00 -0.7071068E+00
  0.0000000E+00  0.0000000E+00 -0.2716360E+01   0.7071068E+00  0.0000000E+00 -0.7071068E+00
  0.1358180E+01  0.1358180E+01 -0.1358180E+01   0.7071068E+00  0.0000000E+00 -0.7071068E+00
           4
 -0.1358180E+01  0.1358180E+01 -0.1358180E+01  -0.7071068E+00 -0.0000000E+00 -0.7071068E+00
  0.0000000E+00  0.0000000E+00 -0.2716360E+01  -0.7071068E+00 -0.0000000E+00 -0.7071068E+00
 -0.1358180E+01 -0.1358180E+01 -0.1358180E+01  -0.7071068E+00 -0.0000000E+00 -0.7071068E+00
 -0.2716360E+01 -0.0000000E+00 -0.0000000E+00  -0.7071068E+00 -0.0000000E+00 -0.7071068E+00
           4
  0.1358180E+01  0.1358180E+01 -0.1358180E+01  -0.0000000E+00  0.7071068E+00 -0.7071068E+00
  0.0000000E+00  0.0000000E+00 -0.2716360E+01  -0.0000000E+00  0.7071068E+00 -0.7071068E+00
 -0.1358180E+01  0.1358180E+01 -0.1358180E+01  -0.0000000E+00  0.7071068E+00 -0.7071068E+00
  0.0000000E+00  0.2716360E+01  0.0000000E+00  -0.0000000E+00  0.7071068E+00 -0.7071068E+00
           4
 -0.0000000E+00 -0.2716360E+01 -0.0000000E+00   0.7071068E+00 -0.7071068E+00 -0.0000000E+00
  0.1358180E+01 -0.1358180E+01 -0.1358180E+01   0.7071068E+00 -0.7071068E+00 -0.0000000E+00
  0.2716360E+01  0.0000000E+00  0.0000000E+00   0.7071068E+00 -0.7071068E+00 -0.0000000E+00
  0.1358180E+01 -0.1358180E+01  0.1358180E+01   0.7071068E+00 -0.7071068E+00 -0.0000000E+00
           4
 -0.1358180E+01 -0.1358180E+01  0.1358180E+01  -0.7071068E+00 -0.7071068E+00  0.0000000E+00
 -0.2716360E+01 -0.0000000E+00 -0.0000000E+00  -0.7071068E+00 -0.7071068E+00  0.0000000E+00
 -0.1358180E+01 -0.1358180E+01 -0.1358180E+01  -0.7071068E+00 -0.7071068E+00  0.0000000E+00
 -0.0000000E+00 -0.2716360E+01 -0.0000000E+00  -0.7071068E+00 -0.7071068E+00  0.0000000E+00
           4
 -0.0000000E+00 -0.0000000E+00  0.2716360E+01   0.0000000E+00 -0.7071068E+00  0.7071068E+00
 -0.1358180E+01 -0.1358180E+01  0.1358180E+01   0.0000000E+00 -0.7071068E+00  0.7071068E+00
 -0.0000000E+00 -0.2716360E+01 -0.0000000E+00   0.0000000E+00 -0.7071068E+00  0.7071068E+00
  0.1358180E+01 -0.1358180E+01  0.1358180E+01   0.0000000E+00 -0.7071068E+00  0.7071068E+00
           4
  0.2716360E+01  0.0000000E+00  0.0000000E+00   0.7071068E+00  0.7071068E+00 -0.0000000E+00
  0.1358180E+01  0.1358180E+01 -0.1358180E+01   0.7071068E+00  0.7071068E+00 -0.0000000E+00
  0.0000000E+00  0.2716360E+01  0.0000000E+00   0.7071068E+00  0.7071068E+00 -0.0000000E+00
  0.1358180E+01  0.1358180E+01  0.1358180E+01   0.7071068E+00  0.7071068E+00 -0.0000000E+00
           4
  0.0000000E+00  0.0000000E+00  0.2716360E+01   0.7071068E+00  0.0000000E+00  0.7071068E+00
  0.1358180E+01 -0.1358180E+01  0.1358180E+01   0.7071068E+00  0.0000000E+00  0.7071068E+00
  0.2716360E+01  0.0000000E+00  0.0000000E+00   0.7071068E+00  0.0000000E+00  0.7071068E+00
  0.1358180E+01  0.1358180E+01  0.1358180E+01   0.7071068E+00  0.0000000E+00  0.7071068E+00
           4
 -0.1358180E+01  0.1358180E+01  0.1358180E+01  -0.7071068E+00  0.7071068E+00  0.0000000E+00
 -0.0000000E+00  0.2716360E+01 -0.0000000E+00  -0.7071068E+00  0.7071068E+00  0.0000000E+00
 -0.1358180E+01  0.1358180E+01 -0.1358180E+01  -0.7071068E+00  0.7071068E+00  0.0000000E+00
 -0.2716360E+01 -0.0000000E+00 -0.0000000E+00  -0.7071068E+00  0.7071068E+00  0.0000000E+00
           4
 -0.1358180E+01  0.1358180E+01  0.1358180E+01  -0.7071068E+00 -0.0000000E+00  0.7071068E+00
 -0.2716360E+01 -0.0000000E+00 -0.0000000E+00  -0.7071068E+00 -0.0000000E+00  0.7071068E+00
 -0.1358180E+01 -0.1358180E+01  0.1358180E+01  -0.7071068E+00 -0.0000000E+00  0.7071068E+00
 -0.0000000E+00 -0.0000000E+00  0.2716360E+01  -0.7071068E+00 -0.0000000E+00  0.7071068E+00
           4
 -0.0000000E+00 -0.0000000E+00  0.2716360E+01   0.0000000E+00  0.7071068E+00  0.7071068E+00
  0.1358180E+01  0.1358180E+01  0.1358180E+01   0.0000000E+00  0.7071068E+00  0.7071068E+00
 -0.0000000E+00  0.2716360E+01 -0.0000000E+00   0.0000000E+00  0.7071068E+00  0.7071068E+00
 -0.1358180E+01  0.1358180E+01  0.1358180E+01   0.0000000E+00  0.7071068E+00  0.7071068E+00
 WIGNER-SEITZ-PRIMCELL_END
 WIGNER-SEITZ-CONVCELL
           4
 -0.1358180E+01 -0.1358180E+01 -0.1358180E+01  -0.0000000E+00 -0.7071068E+00 -0.7071068E+00
  0.0000000E+00  0.0000000E+00 -0.2716360E+01  -0.0000000E+00 -0.7071068E+00 -0.7071068E+00
  0.1358180E+01 -0.1358180E+01 -0.1358180E+01  -0.0000000E+00 -0.7071068E+00 -0.7071068E+00
 -0.0000000E+00 -0.2716360E+01 -0.0000000E+00  -0.0000000E+00 -0.7071068E+00 -0.7071068E+00
           4
  0.2716360E+01  0.0000000E+00  0.0000000E+00   0.7071068E+00  0.0000000E+00 -0.7071068E+00
  0.1358180E+01 -0.1358180E+01 -0.1358180E+01   0.7071068E+00  0.0000000E+00 -0.7071068E+00
  0.0000000E+00  0.0000000E+00 -0.2716360E+01   0.7071068E+00  0.0000000E+00 -0.7071068E+00
  0.1358180E+01  0.1358180E+01 -0.1358180E+01   0.7071068E+00  0.0000000E+00 -0.7071068E+00
           4
 -0.1358180E+01  0.1358180E+01 -0.1358180E+01  -0.7071068E+00 -0.0000000E+00 -0.7071068E+00
  0.0000000E+00  0.0000000E+00 -0.2716360E+01  -0.7071068E+00 -0.0000000E+00 -0.7071068E+00
 -0.1358180E+01 -0.1358180E+01 -0.1358180E+01  -0.7071068E+00 -0.0000000E+00 -0.7071068E+00
 -0.2716360E+01 -0.0000000E+00 -0.0000000E+00  -0.7071068E+00 -0.0000000E+00 -0.7071068E+00
           4
  0.1358180E+01  0.1358180E+01 -0.1358180E+01  -0.0000000E+00  0.7071068E+00 -0.7071068E+00
  0.0000000E+00  0.0000000E+00 -0.2716360E+01  -0.0000000E+00  0.7071068E+00 -0.7071068E+00
 -0.1358180E+01  0.1358180E+01 -0.1358180E+01  -0.0000000E+00  0.7071068E+00 -0.7071068E+00
  0.0000000E+00  0.2716360E+01  0.0000000E+00  -0.0000000E+00  0.7071068E+00 -0.7071068E+00
           4
 -0.0000000E+00 -0.2716360E+01 -0.0000000E+00   0.7071068E+00 -0.7071068E+00 -0.0000000E+00
  0.1358180E+01 -0.1358180E+01 -0.1358180E+01   0.7071068E+00 -0.7071068E+00 -0.0000000E+00
  0.2716360E+01  0.0000000E+00  0.0000000E+00   0.7071068E+00 -0.7071068E+00 -0.0000000E+00
  0.1358180E+01 -0.1358180E+01  0.1358180E+01   0.7071068E+00 -0.7071068E+00 -0.0000000E+00
           4
 -0.1358180E+01 -0.1358180E+01  0.1358180E+01  -0.7071068E+00 -0.7071068E+00  0.0000000E+00
 -0.2716360E+01 -0.0000000E+00 -0.0000000E+00  -0.7071068E+00 -0.7071068E+00  0.0000000E+00
 -0.1358180E+01 -0.1358180E+01 -0.1358180E+01  -0.7071068E+00 -0.7071068E+00  0.0000000E+00
 -0.0000000E+00 -0.2716360E+01 -0.0000000E+00  -0.7071068E+00 -0.7071068E+00  0.0000000E+00
           4
 -0.0000000E+00 -0.0000000E+00  0.2716360E+01   0.0000000E+00 -0.7071068E+00  0.7071068E+00
 -0.1358180E+01 -0.1358180E+01  0.1358180E+01   0.0000000E+00 -0.7071068E+00  0.7071068E+00
 -0.0000000E+00 -0.2716360E+01 -0.0000000E+00   0.0000000E+00 -0.7071068E+00  0.7071068E+00
  0.1358180E+01 -0.1358180E+01  0.1358180E+01   0.0000000E+00 -0.7071068E+00  0.7071068E+00
           4
  0.2716360E+01  0.0000000E+00  0.0000000E+00   0.7071068E+00  0.7071068E+00 -0.0000000E+00
  0.1358180E+01  0.1358180E+01 -0.1358180E+01   0.7071068E+00  0.7071068E+00 -0.0000000E+00
  0.0000000E+00  0.2716360E+01  0.0000000E+00   0.7071068E+00  0.7071068E+00 -0.0000000E+00
  0.1358180E+01  0.1358180E+01  0.1358180E+01   0.7071068E+00  0.7071068E+00 -0.0000000E+00
           4
  0.0000000E+00  0.0000000E+00  0.2716360E+01   0.7071068E+00  0.0000000E+00  0.7071068E+00
  0.1358180E+01 -0.1358180E+01  0.1358180E+01   0.7071068E+00  0.0000000E+00  0.7071068E+00
  0.2716360E+01  0.0000000E+00  0.0000000E+00   0.7071068E+00  0.0000000E+00  0.7071068E+00
  0.1358180E+01  0.1358180E+01  0.1358180E+01   0.7071068E+00  0.0000000E+00  0.7071068E+00
           4
 -0.1358180E+01  0.1358180E+01  0.1358180E+01  -0.7071068E+00  0.7071068E+00  0.0000000E+00
 -0.0000000E+00  0.2716360E+01 -0.0000000E+00  -0.7071068E+00  0.7071068E+00  0.0000000E+00
 -0.1358180E+01  0.1358180E+01 -0.1358180E+01  -0.7071068E+00  0.7071068E+00  0.0000000E+00
 -0.2716360E+01 -0.0000000E+00 -0.0000000E+00  -0.7071068E+00  0.7071068E+00  0.0000000E+00
           4
 -0.1358180E+01  0.1358180E+01  0.1358180E+01  -0.7071068E+00 -0.0000000E+00  0.7071068E+00
 -0.2716360E+01 -0.0000000E+00 -0.0000000E+00  -0.7071068E+00 -0.0000000E+00  0.7071068E+00
 -0.1358180E+01 -0.1358180E+01  0.1358180E+01  -0.7071068E+00 -0.0000000E+00  0.7071068E+00
 -0.0000000E+00 -0.0000000E+00  0.2716360E+01  -0.7071068E+00 -0.0000000E+00  0.7071068E+00
           4
 -0.0000000E+00 -0.0000000E+00  0.2716360E+01   0.0000000E+00  0.7071068E+00  0.7071068E+00
  0.1358180E+01  0.1358180E+01  0.1358180E+01   0.0000000E+00  0.7071068E+00  0.7071068E+00
 -0.0000000E+00  0.2716360E+01 -0.0000000E+00   0.0000000E+00  0.7071068E+00  0.7071068E+00
 -0.1358180E+01  0.1358180E+01  0.1358180E+01   0.0000000E+00  0.7071068E+00  0.7071068E+00
 WIGNER-SEITZ-CONVCELL_END
 BRILLOUIN-ZONE-PRIMCELL
           6
 -0.1840699E+00  0.1738450E-16 -0.9203493E-01  -0.5773503E+00 -0.5773503E+00 -0.5773503E+00
 -0.9203493E-01 -0.1738450E-16 -0.1840699E+00  -0.5773503E+00 -0.5773503E+00 -0.5773503E+00
  0.5215350E-16 -0.9203493E-01 -0.1840699E+00  -0.5773503E+00 -0.5773503E+00 -0.5773503E+00
 -0.5215350E-16 -0.1840699E+00 -0.9203493E-01  -0.5773503E+00 -0.5773503E+00 -0.5773503E+00
 -0.9203493E-01 -0.1840699E+00 -0.5215350E-16  -0.5773503E+00 -0.5773503E+00 -0.5773503E+00
 -0.1840699E+00 -0.9203493E-01  0.5215350E-16  -0.5773503E+00 -0.5773503E+00 -0.5773503E+00
           4
 -0.9203493E-01 -0.1738450E-16 -0.1840699E+00   0.2047976E-15  0.0000000E+00 -0.1000000E+01
 -0.5215350E-16  0.9203493E-01 -0.1840699E+00   0.2047976E-15  0.0000000E+00 -0.1000000E+01
  0.9203493E-01  0.1738450E-16 -0.1840699E+00   0.2047976E-15  0.0000000E+00 -0.1000000E+01
  0.5215350E-16 -0.9203493E-01 -0.1840699E+00   0.2047976E-15  0.0000000E+00 -0.1000000E+01
           6
 -0.5215350E-16 -0.1840699E+00 -0.9203493E-01   0.5773503E+00 -0.5773503E+00 -0.5773503E+00
  0.5215350E-16 -0.9203493E-01 -0.1840699E+00   0.5773503E+00 -0.5773503E+00 -0.5773503E+00
  0.9203493E-01  0.1738450E-16 -0.1840699E+00   0.5773503E+00 -0.5773503E+00 -0.5773503E+00
  0.1840699E+00 -0.1738450E-16 -0.9203493E-01   0.5773503E+00 -0.5773503E+00 -0.5773503E+00
  0.1840699E+00 -0.9203493E-01 -0.5215350E-16   0.5773503E+00 -0.5773503E+00 -0.5773503E+00
  0.9203493E-01 -0.1840699E+00  0.5215350E-16   0.5773503E+00 -0.5773503E+00 -0.5773503E+00
           6
 -0.1840699E+00  0.9203493E-01 -0.5215350E-16  -0.5773503E+00  0.5773503E+00 -0.5773503E+00
 -0.9203493E-01  0.1840699E+00  0.5215350E-16  -0.5773503E+00  0.5773503E+00 -0.5773503E+00
  0.5215350E-16  0.1840699E+00 -0.9203493E-01  -0.5773503E+00  0.5773503E+00 -0.5773503E+00
 -0.5215350E-16  0.9203493E-01 -0.1840699E+00  -0.5773503E+00  0.5773503E+00 -0.5773503E+00
 -0.9203493E-01 -0.1738450E-16 -0.1840699E+00  -0.5773503E+00  0.5773503E+00 -0.5773503E+00
 -0.1840699E+00  0.1738450E-16 -0.9203493E-01  -0.5773503E+00  0.5773503E+00 -0.5773503E+00
           4
 -0.9203493E-01 -0.1840699E+00 -0.5215350E-16  -0.0000000E+00 -0.1000000E+01 -0.2047976E-15
 -0.5215350E-16 -0.1840699E+00 -0.9203493E-01  -0.0000000E+00 -0.1000000E+01 -0.2047976E-15
  0.9203493E-01 -0.1840699E+00  0.5215350E-16  -0.0000000E+00 -0.1000000E+01 -0.2047976E-15
  0.5215350E-16 -0.1840699E+00  0.9203493E-01  -0.0000000E+00 -0.1000000E+01 -0.2047976E-15
           6
 -0.1840699E+00 -0.1738450E-16  0.9203493E-01  -0.5773503E+00 -0.5773503E+00  0.5773503E+00
 -0.1840699E+00 -0.9203493E-01  0.5215350E-16  -0.5773503E+00 -0.5773503E+00  0.5773503E+00
 -0.9203493E-01 -0.1840699E+00 -0.5215350E-16  -0.5773503E+00 -0.5773503E+00  0.5773503E+00
  0.5215350E-16 -0.1840699E+00  0.9203493E-01  -0.5773503E+00 -0.5773503E+00  0.5773503E+00
 -0.5215350E-16 -0.9203493E-01  0.1840699E+00  -0.5773503E+00 -0.5773503E+00  0.5773503E+00
 -0.9203493E-01  0.1738450E-16  0.1840699E+00  -0.5773503E+00 -0.5773503E+00  0.5773503E+00
           4
 -0.1840699E+00 -0.1738450E-16  0.9203493E-01  -0.1000000E+01  0.0000000E+00  0.0000000E+00
 -0.1840699E+00  0.9203493E-01 -0.5215350E-16  -0.1000000E+01  0.0000000E+00  0.0000000E+00
 -0.1840699E+00  0.1738450E-16 -0.9203493E-01  -0.1000000E+01  0.0000000E+00  0.0000000E+00
 -0.1840699E+00 -0.9203493E-01  0.5215350E-16  -0.1000000E+01  0.0000000E+00  0.0000000E+00
           6
  0.9203493E-01  0.1840699E+00 -0.5215350E-16   0.5773503E+00  0.5773503E+00 -0.5773503E+00
  0.1840699E+00  0.9203493E-01  0.5215350E-16   0.5773503E+00  0.5773503E+00 -0.5773503E+00
  0.1840699E+00 -0.1738450E-16 -0.9203493E-01   0.5773503E+00  0.5773503E+00 -0.5773503E+00
  0.9203493E-01  0.1738450E-16 -0.1840699E+00   0.5773503E+00  0.5773503E+00 -0.5773503E+00
 -0.5215350E-16  0.9203493E-01 -0.1840699E+00   0.5773503E+00  0.5773503E+00 -0.5773503E+00
  0.5215350E-16  0.1840699E+00 -0.9203493E-01   0.5773503E+00  0.5773503E+00 -0.5773503E+00
           6
  0.5215350E-16 -0.1840699E+00  0.9203493E-01   0.5773503E+00 -0.5773503E+00  0.5773503E+00
  0.9203493E-01 -0.1840699E+00  0.5215350E-16   0.5773503E+00 -0.5773503E+00  0.5773503E+00
  0.1840699E+00 -0.9203493E-01 -0.5215350E-16   0.5773503E+00 -0.5773503E+00  0.5773503E+00
  0.1840699E+00  0.1738450E-16  0.9203493E-01   0.5773503E+00 -0.5773503E+00  0.5773503E+00
  0.9203493E-01 -0.1738450E-16  0.1840699E+00   0.5773503E+00 -0.5773503E+00  0.5773503E+00
 -0.5215350E-16 -0.9203493E-01  0.1840699E+00   0.5773503E+00 -0.5773503E+00  0.5773503E+00
           4
  0.1840699E+00 -0.9203493E-01 -0.5215350E-16   0.1000000E+01 -0.0000000E+00 -0.0000000E+00
  0.1840699E+00 -0.1738450E-16 -0.9203493E-01   0.1000000E+01 -0.0000000E+00 -0.0000000E+00
  0.1840699E+00  0.9203493E-01  0.5215350E-16   0.1000000E+01 -0.0000000E+00 -0.0000000E+00
  0.1840699E+00  0.1738450E-16  0.9203493E-01   0.1000000E+01 -0.0000000E+00 -0.0000000E+00
           6
 -0.9203493E-01  0.1738450E-16  0.1840699E+00  -0.5773503E+00  0.5773503E+00  0.5773503E+00
  0.5215350E-16  0.9203493E-01  0.1840699E+00  -0.5773503E+00  0.5773503E+00  0.5773503E+00
 -0.5215350E-16  0.1840699E+00  0.9203493E-01  -0.5773503E+00  0.5773503E+00  0.5773503E+00
 -0.9203493E-01  0.1840699E+00  0.5215350E-16  -0.5773503E+00  0.5773503E+00  0.5773503E+00
 -0.1840699E+00  0.9203493E-01 -0.5215350E-16  -0.5773503E+00  0.5773503E+00  0.5773503E+00
 -0.1840699E+00 -0.1738450E-16  0.9203493E-01  -0.5773503E+00  0.5773503E+00  0.5773503E+00
           4
 -0.5215350E-16  0.1840699E+00  0.9203493E-01   0.0000000E+00  0.1000000E+01 -0.2047976E-15
  0.9203493E-01  0.1840699E+00 -0.5215350E-16   0.0000000E+00  0.1000000E+01 -0.2047976E-15
  0.5215350E-16  0.1840699E+00 -0.9203493E-01   0.0000000E+00  0.1000000E+01 -0.2047976E-15
 -0.9203493E-01  0.1840699E+00  0.5215350E-16   0.0000000E+00  0.1000000E+01 -0.2047976E-15
           4
 -0.5215350E-16 -0.9203493E-01  0.1840699E+00   0.2047976E-15 -0.0000000E+00  0.1000000E+01
  0.9203493E-01 -0.1738450E-16  0.1840699E+00   0.2047976E-15 -0.0000000E+00  0.1000000E+01
  0.5215350E-16  0.9203493E-01  0.1840699E+00   0.2047976E-15 -0.0000000E+00  0.1000000E+01
 -0.9203493E-01  0.1738450E-16  0.1840699E+00   0.2047976E-15 -0.0000000E+00  0.1000000E+01
           6
  0.5215350E-16  0.9203493E-01  0.1840699E+00   0.5773503E+00  0.5773503E+00  0.5773503E+00
  0.9203493E-01 -0.1738450E-16  0.1840699E+00   0.5773503E+00  0.5773503E+00  0.5773503E+00
  0.1840699E+00  0.1738450E-16  0.9203493E-01   0.5773503E+00  0.5773503E+00  0.5773503E+00
  0.1840699E+00  0.9203493E-01  0.5215350E-16   0.5773503E+00  0.5773503E+00  0.5773503E+00
  0.9203493E-01  0.1840699E+00 -0.5215350E-16   0.5773503E+00  0.5773503E+00  0.5773503E+00
 -0.5215350E-16  0.1840699E+00  0.9203493E-01   0.5773503E+00  0.5773503E+00  0.5773503E+00
 BRILLOUIN-ZONE-PRIMCELL_END
 BRILLOUIN-ZONE-CONVCELL
           6
 -0.1840699E+00  0.1738450E-16 -0.9203493E-01  -0.5773503E+00 -0.5773503E+00 -0.5773503E+00
 -0.9203493E-01 -0.1738450E-16 -0.1840699E+00  -0.5773503E+00 -0.5773503E+00 -0.5773503E+00
  0.5215350E-16 -0.9203493E-01 -0.1840699E+00  -0.5773503E+00 -0.5773503E+00 -0.5773503E+00
 -0.5215350E-16 -0.1840699E+00 -0.9203493E-01  -0.5773503E+00 -0.5773503E+00 -0.5773503E+00
 -0.9203493E-01 -0.1840699E+00 -0.5215350E-16  -0.5773503E+00 -0.5773503E+00 -0.5773503E+00
 -0.1840699E+00 -0.9203493E-01  0.5215350E-16  -0.5773503E+00 -0.5773503E+00 -0.5773503E+00
           4
 -0.9203493E-01 -0.1738450E-16 -0.1840699E+00   0.2047976E-15  0.0000000E+00 -0.1000000E+01
 -0.5215350E-16  0.9203493E-01 -0.1840699E+00   0.2047976E-15  0.0000000E+00 -0.1000000E+01
  0.9203493E-01  0.1738450E-16 -0.1840699E+00   0.2047976E-15  0.0000000E+00 -0.1000000E+01
  0.5215350E-16 -0.9203493E-01 -0.1840699E+00   0.2047976E-15  0.0000000E+00 -0.1000000E+01
           6
 -0.5215350E-16 -0.1840699E+00 -0.9203493E-01   0.5773503E+00 -0.5773503E+00 -0.5773503E+00
  0.5215350E-16 -0.9203493E-01 -0.1840699E+00   0.5773503E+00 -0.5773503E+00 -0.5773503E+00
  0.9203493E-01  0.1738450E-16 -0.1840699E+00   0.5773503E+00 -0.5773503E+00 -0.5773503E+00
  0.1840699E+00 -0.1738450E-16 -0.9203493E-01   0.5773503E+00 -0.5773503E+00 -0.5773503E+00
  0.1840699E+00 -0.9203493E-01 -0.5215350E-16   0.5773503E+00 -0.5773503E+00 -0.5773503E+00
  0.9203493E-01 -0.1840699E+00  0.5215350E-16   0.5773503E+00 -0.5773503E+00 -0.5773503E+00
           6
 -0.1840699E+00  0.9203493E-01 -0.5215350E-16  -0.5773503E+00  0.5773503E+00 -0.5773503E+00
 -0.9203493E-01  0.1840699E+00  0.5215350E-16  -0.5773503E+00  0.5773503E+00 -0.5773503E+00
  0.5215350E-16  0.1840699E+00 -0.9203493E-01  -0.5773503E+00  0.5773503E+00 -0.5773503E+00
 -0.5215350E-16  0.9203493E-01 -0.1840699E+00  -0.5773503E+00  0.5773503E+00 -0.5773503E+00
 -0.9203493E-01 -0.1738450E-16 -0.1840699E+00  -0.5773503E+00  0.5773503E+00 -0.5773503E+00
 -0.1840699E+00  0.1738450E-16 -0.9203493E-01  -0.5773503E+00  0.5773503E+00 -0.5773503E+00
           4
 -0.9203493E-01 -0.1840699E+00 -0.5215350E-16  -0.0000000E+00 -0.1000000E+01 -0.2047976E-15
 -0.5215350E-16 -0.1840699E+00 -0.9203493E-01  -0.0000000E+00 -0.1000000E+01 -0.2047976E-15
  0.9203493E-01 -0.1840699E+00  0.5215350E-16  -0.0000000E+00 -0.1000000E+01 -0.2047976E-15
  0.5215350E-16 -0.1840699E+00  0.9203493E-01  -0.0000000E+00 -0.1000000E+01 -0.2047976E-15
           6
 -0.1840699E+00 -0.1738450E-16  0.9203493E-01  -0.5773503E+00 -0.5773503E+00  0.5773503E+00
 -0.1840699E+00 -0.9203493E-01  0.5215350E-16  -0.5773503E+00 -0.5773503E+00  0.5773503E+00
 -0.9203493E-01 -0.1840699E+00 -0.5215350E-16  -0.5773503E+00 -0.5773503E+00  0.5773503E+00
  0.5215350E-16 -0.1840699E+00  0.9203493E-01  -0.5773503E+00 -0.5773503E+00  0.5773503E+00
 -0.5215350E-16 -0.9203493E-01  0.1840699E+00  -0.5773503E+00 -0.5773503E+00  0.5773503E+00
 -0.9203493E-01  0.1738450E-16  0.1840699E+00  -0.5773503E+00 -0.5773503E+00  0.5773503E+00
           4
 -0.1840699E+00 -0.1738450E-16  0.9203493E-01  -0.1000000E+01  0.0000000E+00  0.0000000E+00
 -0.1840699E+00  0.9203493E-01 -0.5215350E-16  -0.1000000E+01  0.0000000E+00  0.0000000E+00
 -0.1840699E+00  0.1738450E-16 -0.9203493E-01  -0.1000000E+01  0.0000000E+00  0.0000000E+00
 -0.1840699E+00 -0.9203493E-01  0.5215350E-16  -0.1000000E+01  0.0000000E+00  0.0000000E+00
           6
  0.9203493E-01  0.1840699E+00 -0.5215350E-16   0.5773503E+00  0.5773503E+00 -0.5773503E+00
  0.1840699E+00  0.9203493E-01  0.5215350E-16   0.5773503E+00  0.5773503E+00 -0.5773503E+00
  0.1840699E+00 -0.1738450E-16 -0.9203493E-01   0.5773503E+00  0.5773503E+00 -0.5773503E+00
  0.9203493E-01  0.1738450E-16 -0.1840699E+00   0.5773503E+00  0.5773503E+00 -0.5773503E+00
 -0.5215350E-16  0.9203493E-01 -0.1840699E+00   0.5773503E+00  0.5773503E+00 -0.5773503E+00
  0.5215350E-16  0.1840699E+00 -0.9203493E-01   0.5773503E+00  0.5773503E+00 -0.5773503E+00
           6
  0.5215350E-16 -0.1840699E+00  0.9203493E-01   0.5773503E+00 -0.5773503E+00  0.5773503E+00
  0.9203493E-01 -0.1840699E+00  0.5215350E-16   0.5773503E+00 -0.5773503E+00  0.5773503E+00
  0.1840699E+00 -0.9203493E-01 -0.5215350E-16   0.5773503E+00 -0.5773503E+00  0.5773503E+00
  0.1840699E+00  0.1738450E-16  0.9203493E-01   0.5773503E+00 -0.5773503E+00  0.5773503E+00
  0.9203493E-01 -0.1738450E-16  0.1840699E+00   0.5773503E+00 -0.5773503E+00  0.5773503E+00
 -0.5215350E-16 -0.9203493E-01  0.1840699E+00   0.5773503E+00 -0.5773503E+00  0.5773503E+00
           4
  0.1840699E+00 -0.9203493E-01 -0.5215350E-16   0.1000000E+01 -0.0000000E+00 -0.0000000E+00
  0.1840699E+00 -0.1738450E-16 -0.9203493E-01   0.1000000E+01 -0.0000000E+00 -0.0000000E+00
  0.1840699E+00  0.9203493E-01  0.5215350E-16   0.1000000E+01 -0.0000000E+00 -0.0000000E+00
  0.1840699E+00  0.1738450E-16  0.9203493E-01   0.1000000E+01 -0.0000000E+00 -0.0000000E+00
           6
 -0.9203493E-01  0.1738450E-16  0.1840699E+00  -0.5773503E+00  0.5773503E+00  0.5773503E+00
  0.5215350E-16  0.9203493E-01  0.1840699E+00  -0.5773503E+00  0.5773503E+00  0.5773503E+00
 -0.5215350E-16  0.1840699E+00  0.9203493E-01  -0.5773503E+00  0.5773503E+00  0.5773503E+00
 -0.9203493E-01  0.1840699E+00  0.5215350E-16  -0.5773503E+00  0.5773503E+00  0.5773503E+00
 -0.1840699E+00  0.9203493E-01 -0.5215350E-16  -0.5773503E+00  0.5773503E+00  0.5773503E+00
 -0.1840699E+00 -0.1738450E-16  0.9203493E-01  -0.5773503E+00  0.5773503E+00  0.5773503E+00
           4
 -0.5215350E-16  0.1840699E+00  0.9203493E-01   0.0000000E+00  0.1000000E+01 -0.2047976E-15
  0.9203493E-01  0.1840699E+00 -0.5215350E-16   0.0000000E+00  0.1000000E+01 -0.2047976E-15
  0.5215350E-16  0.1840699E+00 -0.9203493E-01   0.0000000E+00  0.1000000E+01 -0.2047976E-15
 -0.9203493E-01  0.1840699E+00  0.5215350E-16   0.0000000E+00  0.1000000E+01 -0.2047976E-15
           4
 -0.5215350E-16 -0.9203493E-01  0.1840699E+00   0.2047976E-15 -0.0000000E+00  0.1000000E+01
  0.9203493E-01 -0.1738450E-16  0.1840699E+00   0.2047976E-15 -0.0000000E+00  0.1000000E+01
  0.5215350E-16  0.9203493E-01  0.1840699E+00   0.2047976E-15 -0.0000000E+00  0.1000000E+01
 -0.9203493E-01  0.1738450E-16  0.1840699E+00   0.2047976E-15 -0.0000000E+00  0.1000000E+01
           6
  0.5215350E-16  0.9203493E-01  0.1840699E+00   0.5773503E+00  0.5773503E+00  0.5773503E+00
  0.9203493E-01 -0.1738450E-16  0.1840699E+00   0.5773503E+00  0.5773503E+00  0.5773503E+00
  0.1840699E+00  0.1738450E-16  0.9203493E-01   0.5773503E+00  0.5773503E+00  0.5773503E+00
  0.1840699E+00  0.9203493E-01  0.5215350E-16   0.5773503E+00  0.5773503E+00  0.5773503E+00
  0.9203493E-01  0.1840699E+00 -0.5215350E-16   0.5773503E+00  0.5773503E+00  0.5773503E+00
 -0.5215350E-16  0.1840699E+00  0.9203493E-01   0.5773503E+00  0.5773503E+00  0.5773503E+00
 BRILLOUIN-ZONE-CONVCELL_END
 ATOMS
   14    4.0745390470    4.0745390470    4.0745390470    0.0000000000    0.0000000000    0.0000000000
   14    2.7163593650    2.7163593650    2.7163593650   -0.0000000000   -0.0000000000   -0.0000000000
 FRAMES
1      0.0000000000    0.0000000000    0.0000000000      0.0000000000    2.7163599450    2.7163599450
1      0.0000000000    0.0000000000    0.0000000000      2.7163599450    0.0000000000    2.7163599450
1      0.0000000000    0.0000000000    0.0000000000      2.7163599450    2.7163599450    0.0000000000
1      2.7163599450    2.7163599450    0.0000000000      2.7163599450    5.4327198900    2.7163599450
1      2.7163599450    2.7163599450    0.0000000000      5.4327198900    2.7163599450    2.7163599450
1      2.7163599450    0.0000000000    2.7163599450      2.7163599450    2.7163599450    5.4327198900
1      2.7163599450    0.0000000000    2.7163599450      5.4327198900    2.7163599450    2.7163599450
1      5.4327198900    2.7163599450    2.7163599450      5.4327198900    5.4327198900    5.4327198900
1      0.0000000000    2.7163599450    2.7163599450      2.7163599450    2.7163599450    5.4327198900
1      0.0000000000    2.7163599450    2.7163599450      2.7163599450    5.4327198900    2.7163599450
1      2.7163599450    5.4327198900    2.7163599450      5.4327198900    5.4327198900    5.4327198900
1      2.7163599450    2.7163599450    5.4327198900      5.4327198900    5.4327198900    5.4327198900
