
     Program PWSCF v.7.3.1 starts on 17Jan2026 at 19:43:46 

     This program is part of the open-source Quantum ESPRESSO suite
     for quantum simulation of materials; please cite
         "P. Giannozzi et al., J. Phys.:Condens. Matter 21 395502 (2009);
         "P. Giannozzi et al., J. Phys.:Condens. Matter 29 465901 (2017);
         "P. Giannozzi et al., J. Chem. Phys. 152 154105 (2020);
          URL http://www.quantum-espresso.org", 
     in publications or presentations arising from this work. More details at
     http://www.quantum-espresso.org/quote

     Parallel version (MPI), running on    10 processors

     MPI processes distributed on     1 nodes
     23406 MiB available memory on the printing compute node when the environment starts

     Reading input from vc_relax.in

     Current dimensions of program PWSCF are:
     Max number of different atomic species (ntypx) = 10
     Max number of k-points (npk) = 120000
     Max angular momentum in pseudopotentials (lmaxx) =  4
     file Si.pbesol-n-kjpaw_psl.1.0.0.UPF: wavefunction(s)  3S 3P renormalized

     R & G space division:  proc/nbgrp/npool/nimage =      10
     Subspace diagonalization in iterative solution of the eigenvalue problem:
     a serial algorithm will be used


     Parallelization info
     --------------------
     sticks:   dense  smooth     PW     G-vecs:    dense   smooth      PW
     Min          64      64     19                 1099     1099     189
     Max          65      65     20                 1102     1102     192
     Sum         649     649    199                11017    11017    1917

     Using Slab Decomposition



     bravais-lattice index     =           -5
     lattice parameter (alat)  =       7.2754  a.u.
     unit-cell volume          =     272.3101 (a.u.)^3
     number of atoms/cell      =            2
     number of atomic types    =            1
     number of electrons       =         8.00
     number of Kohn-Sham states=            8
     kinetic-energy cutoff     =      45.0000  Ry
     charge density cutoff     =     180.0000  Ry
     scf convergence threshold =      1.0E-08
     mixing beta               =       0.7000
     number of iterations used =            8  plain     mixing
     energy convergence thresh.=      1.0E-05
     force convergence thresh. =      1.0E-04
     press convergence thresh. =      1.0E-01
     Exchange-correlation= SLA  PW   PSX  PSC
                           (   1   4  10   8   0   0   0)
     nstep                     =           50


     celldm(1)=   7.275446  celldm(2)=   0.000000  celldm(3)=   0.000000
     celldm(4)=   0.500000  celldm(5)=   0.000000  celldm(6)=   0.000000

     crystal axes: (cart. coord. in units of alat)
               a(1) = (   0.000000   0.707107   0.707107 )  
               a(2) = (   0.707107   0.000000   0.707107 )  
               a(3) = (   0.707107   0.707107   0.000000 )  

     reciprocal axes: (cart. coord. in units 2 pi/alat)
               b(1) = ( -0.707107  0.707107  0.707107 )  
               b(2) = (  0.707107 -0.707107  0.707107 )  
               b(3) = (  0.707107  0.707107 -0.707107 )  


     PseudoPot. # 1 for Si read from file:
     ./../../pseudos/Si.pbesol-n-kjpaw_psl.1.0.0.UPF
     MD5 check sum: 9fbd692c527d147d9ad0870b71777ff4
     Pseudo is Projector augmented-wave + core cor, Zval =  4.0
     Generated using &quot;atomic&quot; code by A. Dal Corso  v.6.3
     Shape of augmentation charge: PSQ
     Using radial grid of 1141 points,  6 beta functions with: 
                l(1) =   0
                l(2) =   0
                l(3) =   1
                l(4) =   1
                l(5) =   2
                l(6) =   2
     Q(r) pseudized with 0 coefficients 


     atomic species   valence    mass     pseudopotential
     Si                4.00    28.08550     Si( 1.00)

     48 Sym. Ops., with inversion, found (24 have fractional translation)


                                    s                        frac. trans.

      isym =  1     identity                                     

 cryst.   s( 1) = (     1          0          0      )
                  (     0          1          0      )
                  (     0          0          1      )

 cart.    s( 1) = (  1.0000000  0.0000000  0.0000000 )
                  (  0.0000000  1.0000000  0.0000000 )
                  (  0.0000000  0.0000000  1.0000000 )


      isym =  2     180 deg rotation - cart. axis [0,0,1]        

 cryst.   s( 2) = (     0          1         -1      )
                  (     1          0         -1      )
                  (     0          0         -1      )

 cart.    s( 2) = ( -1.0000000  0.0000000  0.0000000 )
                  (  0.0000000 -1.0000000  0.0000000 )
                  (  0.0000000  0.0000000  1.0000000 )


      isym =  3     180 deg rotation - cart. axis [0,1,0]        

 cryst.   s( 3) = (     0         -1          1      )
                  (     0         -1          0      )
                  (     1         -1          0      )

 cart.    s( 3) = ( -1.0000000  0.0000000  0.0000000 )
                  (  0.0000000  1.0000000  0.0000000 )
                  (  0.0000000  0.0000000 -1.0000000 )


      isym =  4     180 deg rotation - cart. axis [1,0,0]        

 cryst.   s( 4) = (    -1          0          0      )
                  (    -1          0          1      )
                  (    -1          1          0      )

 cart.    s( 4) = (  1.0000000  0.0000000  0.0000000 )
                  (  0.0000000 -1.0000000  0.0000000 )
                  (  0.0000000  0.0000000 -1.0000000 )


      isym =  5     180 deg rotation - cart. axis [1,1,0]        

 cryst.   s( 5) = (    -1          0          1      )    f =( -0.2500000 )
                  (     0         -1          1      )       ( -0.2500000 )
                  (     0          0          1      )       ( -0.2500000 )

 cart.    s( 5) = (  0.0000000  1.0000000  0.0000000 )    f =( -0.3535534 )
                  (  1.0000000  0.0000000  0.0000000 )       ( -0.3535534 )
                  (  0.0000000  0.0000000 -1.0000000 )       ( -0.3535534 )


      isym =  6     180 deg rotation - cart. axis [1,-1,0]       

 cryst.   s( 6) = (     0         -1          0      )    f =( -0.2500000 )
                  (    -1          0          0      )       ( -0.2500000 )
                  (     0          0         -1      )       ( -0.2500000 )

 cart.    s( 6) = (  0.0000000 -1.0000000  0.0000000 )    f =( -0.3535534 )
                  ( -1.0000000  0.0000000  0.0000000 )       ( -0.3535534 )
                  (  0.0000000  0.0000000 -1.0000000 )       ( -0.3535534 )


      isym =  7      90 deg rotation - cart. axis [0,0,-1]       

 cryst.   s( 7) = (     0          1          0      )    f =( -0.2500000 )
                  (     0          1         -1      )       ( -0.2500000 )
                  (    -1          1          0      )       ( -0.2500000 )

 cart.    s( 7) = (  0.0000000  1.0000000  0.0000000 )    f =( -0.3535534 )
                  ( -1.0000000  0.0000000  0.0000000 )       ( -0.3535534 )
                  (  0.0000000  0.0000000  1.0000000 )       ( -0.3535534 )


      isym =  8      90 deg rotation - cart. axis [0,0,1]        

 cryst.   s( 8) = (     1          0         -1      )    f =( -0.2500000 )
                  (     1          0          0      )       ( -0.2500000 )
                  (     1         -1          0      )       ( -0.2500000 )

 cart.    s( 8) = (  0.0000000 -1.0000000  0.0000000 )    f =( -0.3535534 )
                  (  1.0000000  0.0000000  0.0000000 )       ( -0.3535534 )
                  (  0.0000000  0.0000000  1.0000000 )       ( -0.3535534 )


      isym =  9     180 deg rotation - cart. axis [1,0,1]        

 cryst.   s( 9) = (    -1          1          0      )    f =( -0.2500000 )
                  (     0          1          0      )       ( -0.2500000 )
                  (     0          1         -1      )       ( -0.2500000 )

 cart.    s( 9) = (  0.0000000  0.0000000  1.0000000 )    f =( -0.3535534 )
                  (  0.0000000 -1.0000000  0.0000000 )       ( -0.3535534 )
                  (  1.0000000  0.0000000  0.0000000 )       ( -0.3535534 )


      isym = 10     180 deg rotation - cart. axis [-1,0,1]       

 cryst.   s(10) = (     0          0         -1      )    f =( -0.2500000 )
                  (     0         -1          0      )       ( -0.2500000 )
                  (    -1          0          0      )       ( -0.2500000 )

 cart.    s(10) = (  0.0000000  0.0000000 -1.0000000 )    f =( -0.3535534 )
                  (  0.0000000 -1.0000000  0.0000000 )       ( -0.3535534 )
                  ( -1.0000000  0.0000000  0.0000000 )       ( -0.3535534 )


      isym = 11      90 deg rotation - cart. axis [0,1,0]        

 cryst.   s(11) = (     0          0          1      )    f =( -0.2500000 )
                  (    -1          0          1      )       ( -0.2500000 )
                  (     0         -1          1      )       ( -0.2500000 )

 cart.    s(11) = (  0.0000000  0.0000000  1.0000000 )    f =( -0.3535534 )
                  (  0.0000000  1.0000000  0.0000000 )       ( -0.3535534 )
                  ( -1.0000000  0.0000000  0.0000000 )       ( -0.3535534 )


      isym = 12      90 deg rotation - cart. axis [0,-1,0]       

 cryst.   s(12) = (     1         -1          0      )    f =( -0.2500000 )
                  (     1          0         -1      )       ( -0.2500000 )
                  (     1          0          0      )       ( -0.2500000 )

 cart.    s(12) = (  0.0000000  0.0000000 -1.0000000 )    f =( -0.3535534 )
                  (  0.0000000  1.0000000  0.0000000 )       ( -0.3535534 )
                  (  1.0000000  0.0000000  0.0000000 )       ( -0.3535534 )


      isym = 13     180 deg rotation - cart. axis [0,1,1]        

 cryst.   s(13) = (     1          0          0      )    f =( -0.2500000 )
                  (     1         -1          0      )       ( -0.2500000 )
                  (     1          0         -1      )       ( -0.2500000 )

 cart.    s(13) = ( -1.0000000  0.0000000  0.0000000 )    f =( -0.3535534 )
                  (  0.0000000  0.0000000  1.0000000 )       ( -0.3535534 )
                  (  0.0000000  1.0000000  0.0000000 )       ( -0.3535534 )


      isym = 14     180 deg rotation - cart. axis [0,1,-1]       

 cryst.   s(14) = (    -1          0          0      )    f =( -0.2500000 )
                  (     0          0         -1      )       ( -0.2500000 )
                  (     0         -1          0      )       ( -0.2500000 )

 cart.    s(14) = ( -1.0000000  0.0000000  0.0000000 )    f =( -0.3535534 )
                  (  0.0000000  0.0000000 -1.0000000 )       ( -0.3535534 )
                  (  0.0000000 -1.0000000  0.0000000 )       ( -0.3535534 )


      isym = 15      90 deg rotation - cart. axis [-1,0,0]       

 cryst.   s(15) = (     0         -1          1      )    f =( -0.2500000 )
                  (     0          0          1      )       ( -0.2500000 )
                  (    -1          0          1      )       ( -0.2500000 )

 cart.    s(15) = (  1.0000000  0.0000000  0.0000000 )    f =( -0.3535534 )
                  (  0.0000000  0.0000000  1.0000000 )       ( -0.3535534 )
                  (  0.0000000 -1.0000000  0.0000000 )       ( -0.3535534 )


      isym = 16      90 deg rotation - cart. axis [1,0,0]        

 cryst.   s(16) = (     0          1         -1      )    f =( -0.2500000 )
                  (    -1          1          0      )       ( -0.2500000 )
                  (     0          1          0      )       ( -0.2500000 )

 cart.    s(16) = (  1.0000000  0.0000000  0.0000000 )    f =( -0.3535534 )
                  (  0.0000000  0.0000000 -1.0000000 )       ( -0.3535534 )
                  (  0.0000000  1.0000000  0.0000000 )       ( -0.3535534 )


      isym = 17     120 deg rotation - cart. axis [-1,-1,-1]     

 cryst.   s(17) = (     0          0          1      )
                  (     1          0          0      )
                  (     0          1          0      )

 cart.    s(17) = (  0.0000000  1.0000000  0.0000000 )
                  (  0.0000000  0.0000000  1.0000000 )
                  (  1.0000000  0.0000000  0.0000000 )


      isym = 18     120 deg rotation - cart. axis [-1,1,1]       

 cryst.   s(18) = (     1         -1          0      )
                  (     0         -1          1      )
                  (     0         -1          0      )

 cart.    s(18) = (  0.0000000 -1.0000000  0.0000000 )
                  (  0.0000000  0.0000000  1.0000000 )
                  ( -1.0000000  0.0000000  0.0000000 )


      isym = 19     120 deg rotation - cart. axis [1,1,-1]       

 cryst.   s(19) = (    -1          1          0      )
                  (    -1          0          0      )
                  (    -1          0          1      )

 cart.    s(19) = (  0.0000000  1.0000000  0.0000000 )
                  (  0.0000000  0.0000000 -1.0000000 )
                  ( -1.0000000  0.0000000  0.0000000 )


      isym = 20     120 deg rotation - cart. axis [1,-1,1]       

 cryst.   s(20) = (     0          0         -1      )
                  (     0          1         -1      )
                  (     1          0         -1      )

 cart.    s(20) = (  0.0000000 -1.0000000  0.0000000 )
                  (  0.0000000  0.0000000 -1.0000000 )
                  (  1.0000000  0.0000000  0.0000000 )


      isym = 21     120 deg rotation - cart. axis [1,1,1]        

 cryst.   s(21) = (     0          1          0      )
                  (     0          0          1      )
                  (     1          0          0      )

 cart.    s(21) = (  0.0000000  0.0000000  1.0000000 )
                  (  1.0000000  0.0000000  0.0000000 )
                  (  0.0000000  1.0000000  0.0000000 )


      isym = 22     120 deg rotation - cart. axis [-1,1,-1]      

 cryst.   s(22) = (    -1          0          1      )
                  (    -1          1          0      )
                  (    -1          0          0      )

 cart.    s(22) = (  0.0000000  0.0000000  1.0000000 )
                  ( -1.0000000  0.0000000  0.0000000 )
                  (  0.0000000 -1.0000000  0.0000000 )


      isym = 23     120 deg rotation - cart. axis [1,-1,-1]      

 cryst.   s(23) = (     1          0         -1      )
                  (     0          0         -1      )
                  (     0          1         -1      )

 cart.    s(23) = (  0.0000000  0.0000000 -1.0000000 )
                  ( -1.0000000  0.0000000  0.0000000 )
                  (  0.0000000  1.0000000  0.0000000 )


      isym = 24     120 deg rotation - cart. axis [-1,-1,1]      

 cryst.   s(24) = (     0         -1          0      )
                  (     1         -1          0      )
                  (     0         -1          1      )

 cart.    s(24) = (  0.0000000  0.0000000 -1.0000000 )
                  (  1.0000000  0.0000000  0.0000000 )
                  (  0.0000000 -1.0000000  0.0000000 )


      isym = 25     inversion                                    

 cryst.   s(25) = (    -1          0          0      )    f =( -0.2500000 )
                  (     0         -1          0      )       ( -0.2500000 )
                  (     0          0         -1      )       ( -0.2500000 )

 cart.    s(25) = ( -1.0000000  0.0000000  0.0000000 )    f =( -0.3535534 )
                  (  0.0000000 -1.0000000  0.0000000 )       ( -0.3535534 )
                  (  0.0000000  0.0000000 -1.0000000 )       ( -0.3535534 )


      isym = 26     inv. 180 deg rotation - cart. axis [0,0,1]   

 cryst.   s(26) = (     0         -1          1      )    f =( -0.2500000 )
                  (    -1          0          1      )       ( -0.2500000 )
                  (     0          0          1      )       ( -0.2500000 )

 cart.    s(26) = (  1.0000000  0.0000000  0.0000000 )    f =( -0.3535534 )
                  (  0.0000000  1.0000000  0.0000000 )       ( -0.3535534 )
                  (  0.0000000  0.0000000 -1.0000000 )       ( -0.3535534 )


      isym = 27     inv. 180 deg rotation - cart. axis [0,1,0]   

 cryst.   s(27) = (     0          1         -1      )    f =( -0.2500000 )
                  (     0          1          0      )       ( -0.2500000 )
                  (    -1          1          0      )       ( -0.2500000 )

 cart.    s(27) = (  1.0000000  0.0000000  0.0000000 )    f =( -0.3535534 )
                  (  0.0000000 -1.0000000  0.0000000 )       ( -0.3535534 )
                  (  0.0000000  0.0000000  1.0000000 )       ( -0.3535534 )


      isym = 28     inv. 180 deg rotation - cart. axis [1,0,0]   

 cryst.   s(28) = (     1          0          0      )    f =( -0.2500000 )
                  (     1          0         -1      )       ( -0.2500000 )
                  (     1         -1          0      )       ( -0.2500000 )

 cart.    s(28) = ( -1.0000000  0.0000000  0.0000000 )    f =( -0.3535534 )
                  (  0.0000000  1.0000000  0.0000000 )       ( -0.3535534 )
                  (  0.0000000  0.0000000  1.0000000 )       ( -0.3535534 )


      isym = 29     inv. 180 deg rotation - cart. axis [1,1,0]   

 cryst.   s(29) = (     1          0         -1      )
                  (     0          1         -1      )
                  (     0          0         -1      )

 cart.    s(29) = (  0.0000000 -1.0000000  0.0000000 )
                  ( -1.0000000  0.0000000  0.0000000 )
                  (  0.0000000  0.0000000  1.0000000 )


      isym = 30     inv. 180 deg rotation - cart. axis [1,-1,0]  

 cryst.   s(30) = (     0          1          0      )
                  (     1          0          0      )
                  (     0          0          1      )

 cart.    s(30) = (  0.0000000  1.0000000  0.0000000 )
                  (  1.0000000  0.0000000  0.0000000 )
                  (  0.0000000  0.0000000  1.0000000 )


      isym = 31     inv.  90 deg rotation - cart. axis [0,0,-1]  

 cryst.   s(31) = (     0         -1          0      )
                  (     0         -1          1      )
                  (     1         -1          0      )

 cart.    s(31) = (  0.0000000 -1.0000000  0.0000000 )
                  (  1.0000000  0.0000000  0.0000000 )
                  (  0.0000000  0.0000000 -1.0000000 )


      isym = 32     inv.  90 deg rotation - cart. axis [0,0,1]   

 cryst.   s(32) = (    -1          0          1      )
                  (    -1          0          0      )
                  (    -1          1          0      )

 cart.    s(32) = (  0.0000000  1.0000000  0.0000000 )
                  ( -1.0000000  0.0000000  0.0000000 )
                  (  0.0000000  0.0000000 -1.0000000 )


      isym = 33     inv. 180 deg rotation - cart. axis [1,0,1]   

 cryst.   s(33) = (     1         -1          0      )
                  (     0         -1          0      )
                  (     0         -1          1      )

 cart.    s(33) = (  0.0000000  0.0000000 -1.0000000 )
                  (  0.0000000  1.0000000  0.0000000 )
                  ( -1.0000000  0.0000000  0.0000000 )


      isym = 34     inv. 180 deg rotation - cart. axis [-1,0,1]  

 cryst.   s(34) = (     0          0          1      )
                  (     0          1          0      )
                  (     1          0          0      )

 cart.    s(34) = (  0.0000000  0.0000000  1.0000000 )
                  (  0.0000000  1.0000000  0.0000000 )
                  (  1.0000000  0.0000000  0.0000000 )


      isym = 35     inv.  90 deg rotation - cart. axis [0,1,0]   

 cryst.   s(35) = (     0          0         -1      )
                  (     1          0         -1      )
                  (     0          1         -1      )

 cart.    s(35) = (  0.0000000  0.0000000 -1.0000000 )
                  (  0.0000000 -1.0000000  0.0000000 )
                  (  1.0000000  0.0000000  0.0000000 )


      isym = 36     inv.  90 deg rotation - cart. axis [0,-1,0]  

 cryst.   s(36) = (    -1          1          0      )
                  (    -1          0          1      )
                  (    -1          0          0      )

 cart.    s(36) = (  0.0000000  0.0000000  1.0000000 )
                  (  0.0000000 -1.0000000  0.0000000 )
                  ( -1.0000000  0.0000000  0.0000000 )


      isym = 37     inv. 180 deg rotation - cart. axis [0,1,1]   

 cryst.   s(37) = (    -1          0          0      )
                  (    -1          1          0      )
                  (    -1          0          1      )

 cart.    s(37) = (  1.0000000  0.0000000  0.0000000 )
                  (  0.0000000  0.0000000 -1.0000000 )
                  (  0.0000000 -1.0000000  0.0000000 )


      isym = 38     inv. 180 deg rotation - cart. axis [0,1,-1]  

 cryst.   s(38) = (     1          0          0      )
                  (     0          0          1      )
                  (     0          1          0      )

 cart.    s(38) = (  1.0000000  0.0000000  0.0000000 )
                  (  0.0000000  0.0000000  1.0000000 )
                  (  0.0000000  1.0000000  0.0000000 )


      isym = 39     inv.  90 deg rotation - cart. axis [-1,0,0]  

 cryst.   s(39) = (     0          1         -1      )
                  (     0          0         -1      )
                  (     1          0         -1      )

 cart.    s(39) = ( -1.0000000  0.0000000  0.0000000 )
                  (  0.0000000  0.0000000 -1.0000000 )
                  (  0.0000000  1.0000000  0.0000000 )


      isym = 40     inv.  90 deg rotation - cart. axis [1,0,0]   

 cryst.   s(40) = (     0         -1          1      )
                  (     1         -1          0      )
                  (     0         -1          0      )

 cart.    s(40) = ( -1.0000000  0.0000000  0.0000000 )
                  (  0.0000000  0.0000000  1.0000000 )
                  (  0.0000000 -1.0000000  0.0000000 )


      isym = 41     inv. 120 deg rotation - cart. axis [-1,-1,-1]

 cryst.   s(41) = (     0          0         -1      )    f =( -0.2500000 )
                  (    -1          0          0      )       ( -0.2500000 )
                  (     0         -1          0      )       ( -0.2500000 )

 cart.    s(41) = (  0.0000000 -1.0000000  0.0000000 )    f =( -0.3535534 )
                  (  0.0000000  0.0000000 -1.0000000 )       ( -0.3535534 )
                  ( -1.0000000  0.0000000  0.0000000 )       ( -0.3535534 )


      isym = 42     inv. 120 deg rotation - cart. axis [-1,1,1]  

 cryst.   s(42) = (    -1          1          0      )    f =( -0.2500000 )
                  (     0          1         -1      )       ( -0.2500000 )
                  (     0          1          0      )       ( -0.2500000 )

 cart.    s(42) = (  0.0000000  1.0000000  0.0000000 )    f =( -0.3535534 )
                  (  0.0000000  0.0000000 -1.0000000 )       ( -0.3535534 )
                  (  1.0000000  0.0000000  0.0000000 )       ( -0.3535534 )


      isym = 43     inv. 120 deg rotation - cart. axis [1,1,-1]  

 cryst.   s(43) = (     1         -1          0      )    f =( -0.2500000 )
                  (     1          0          0      )       ( -0.2500000 )
                  (     1          0         -1      )       ( -0.2500000 )

 cart.    s(43) = (  0.0000000 -1.0000000  0.0000000 )    f =( -0.3535534 )
                  (  0.0000000  0.0000000  1.0000000 )       ( -0.3535534 )
                  (  1.0000000  0.0000000  0.0000000 )       ( -0.3535534 )


      isym = 44     inv. 120 deg rotation - cart. axis [1,-1,1]  

 cryst.   s(44) = (     0          0          1      )    f =( -0.2500000 )
                  (     0         -1          1      )       ( -0.2500000 )
                  (    -1          0          1      )       ( -0.2500000 )

 cart.    s(44) = (  0.0000000  1.0000000  0.0000000 )    f =( -0.3535534 )
                  (  0.0000000  0.0000000  1.0000000 )       ( -0.3535534 )
                  ( -1.0000000  0.0000000  0.0000000 )       ( -0.3535534 )


      isym = 45     inv. 120 deg rotation - cart. axis [1,1,1]   

 cryst.   s(45) = (     0         -1          0      )    f =( -0.2500000 )
                  (     0          0         -1      )       ( -0.2500000 )
                  (    -1          0          0      )       ( -0.2500000 )

 cart.    s(45) = (  0.0000000  0.0000000 -1.0000000 )    f =( -0.3535534 )
                  ( -1.0000000  0.0000000  0.0000000 )       ( -0.3535534 )
                  (  0.0000000 -1.0000000  0.0000000 )       ( -0.3535534 )


      isym = 46     inv. 120 deg rotation - cart. axis [-1,1,-1] 

 cryst.   s(46) = (     1          0         -1      )    f =( -0.2500000 )
                  (     1         -1          0      )       ( -0.2500000 )
                  (     1          0          0      )       ( -0.2500000 )

 cart.    s(46) = (  0.0000000  0.0000000 -1.0000000 )    f =( -0.3535534 )
                  (  1.0000000  0.0000000  0.0000000 )       ( -0.3535534 )
                  (  0.0000000  1.0000000  0.0000000 )       ( -0.3535534 )


      isym = 47     inv. 120 deg rotation - cart. axis [1,-1,-1] 

 cryst.   s(47) = (    -1          0          1      )    f =( -0.2500000 )
                  (     0          0          1      )       ( -0.2500000 )
                  (     0         -1          1      )       ( -0.2500000 )

 cart.    s(47) = (  0.0000000  0.0000000  1.0000000 )    f =( -0.3535534 )
                  (  1.0000000  0.0000000  0.0000000 )       ( -0.3535534 )
                  (  0.0000000 -1.0000000  0.0000000 )       ( -0.3535534 )


      isym = 48     inv. 120 deg rotation - cart. axis [-1,-1,1] 

 cryst.   s(48) = (     0          1          0      )    f =( -0.2500000 )
                  (    -1          1          0      )       ( -0.2500000 )
                  (     0          1         -1      )       ( -0.2500000 )

 cart.    s(48) = (  0.0000000  0.0000000  1.0000000 )    f =( -0.3535534 )
                  ( -1.0000000  0.0000000  0.0000000 )       ( -0.3535534 )
                  (  0.0000000  1.0000000  0.0000000 )       ( -0.3535534 )


     point group O_h (m-3m) 
     there are 10 classes
     the character table:

       E     8C3   3C2   6C4   6C2'  i     8S6   3s_h  6S4   6s_d 
A_1g   1.00  1.00  1.00  1.00  1.00  1.00  1.00  1.00  1.00  1.00
A_2g   1.00  1.00  1.00 -1.00 -1.00  1.00  1.00  1.00 -1.00 -1.00
E_g    2.00 -1.00  2.00  0.00  0.00  2.00 -1.00  2.00  0.00  0.00
T_1g   3.00  0.00 -1.00  1.00 -1.00  3.00  0.00 -1.00  1.00 -1.00
T_2g   3.00  0.00 -1.00 -1.00  1.00  3.00  0.00 -1.00 -1.00  1.00
A_1u   1.00  1.00  1.00  1.00  1.00 -1.00 -1.00 -1.00 -1.00 -1.00
A_2u   1.00  1.00  1.00 -1.00 -1.00 -1.00 -1.00 -1.00  1.00  1.00
E_u    2.00 -1.00  2.00  0.00  0.00 -2.00  1.00 -2.00  0.00  0.00
T_1u   3.00  0.00 -1.00  1.00 -1.00 -3.00  0.00  1.00 -1.00  1.00
T_2u   3.00  0.00 -1.00 -1.00  1.00 -3.00  0.00  1.00  1.00 -1.00

     the symmetry operations in each class and the name of the first element:

     E        1
          identity                                               
     8C3     17   19   20   18   24   21   22   23
          120 deg rotation - cart. axis [-1,-1,-1]               
     3C2      2    4    3
          180 deg rotation - cart. axis [0,0,1]                  
     6C4      7    8   15   16   12   11
           90 deg rotation - cart. axis [0,0,-1]                 
     6C2'     5    6   14   13   10    9
          180 deg rotation - cart. axis [1,1,0]                  
     i       25
          inversion                                              
     8S6     41   43   44   42   48   45   46   47
          inv. 120 deg rotation - cart. axis [-1,-1,-1]          
     3s_h    26   28   27
          inv. 180 deg rotation - cart. axis [0,0,1]             
     6S4     31   32   39   40   36   35
          inv.  90 deg rotation - cart. axis [0,0,-1]            
     6s_d    29   30   38   37   34   33
          inv. 180 deg rotation - cart. axis [1,1,0]             

   Cartesian axes

     site n.     atom                  positions (alat units)
         1        Si     tau(   1) = (   1.0606602   1.0606602   1.0606602  )
         2        Si     tau(   2) = (   0.7071068   0.7071068   0.7071068  )

   Crystallographic axes

     site n.     atom                  positions (cryst. coord.)
         1        Si     tau(   1) = (  0.7500000  0.7500000  0.7500000  )
         2        Si     tau(   2) = (  0.5000000  0.5000000  0.5000000  )

     number of k points=    20  Gaussian smearing, width (Ry)=  0.0005
                       cart. coord. in units 2pi/alat
        k(    1) = (   0.0000000   0.0000000   0.0000000), wk =   0.0058309
        k(    2) = (   0.1010153   0.1010153  -0.1010153), wk =   0.0466472
        k(    3) = (   0.2020305   0.2020305  -0.2020305), wk =   0.0466472
        k(    4) = (   0.3030458   0.3030458  -0.3030458), wk =   0.0466472
        k(    5) = (   0.2020305   0.0000000   0.0000000), wk =   0.0349854
        k(    6) = (   0.3030458   0.1010153  -0.1010153), wk =   0.1399417
        k(    7) = (   0.4040610   0.2020305  -0.2020305), wk =   0.1399417
        k(    8) = (  -0.2020305  -0.4040610   0.4040610), wk =   0.1399417
        k(    9) = (  -0.1010153  -0.3030458   0.3030458), wk =   0.1399417
        k(   10) = (  -0.0000000  -0.2020305   0.2020305), wk =   0.0699708
        k(   11) = (   0.4040610   0.0000000   0.0000000), wk =   0.0349854
        k(   12) = (   0.5050763   0.1010153  -0.1010153), wk =   0.1399417
        k(   13) = (  -0.1010153  -0.5050763   0.5050763), wk =   0.1399417
        k(   14) = (   0.0000000  -0.4040610   0.4040610), wk =   0.0699708
        k(   15) = (   0.6060915   0.0000000   0.0000000), wk =   0.0349854
        k(   16) = (   0.0000000  -0.6060915   0.6060915), wk =   0.0699708
        k(   17) = (   0.4040610   0.2020305   0.0000000), wk =   0.1399417
        k(   18) = (  -0.2020305  -0.4040610   0.6060915), wk =   0.2798834
        k(   19) = (  -0.1010153  -0.5050763   0.7071068), wk =   0.1399417
        k(   20) = (   0.0000000  -0.4040610   0.6060915), wk =   0.1399417

                       cryst. coord.
        k(    1) = (   0.0000000   0.0000000   0.0000000), wk =   0.0058309
        k(    2) = (   0.0000000   0.0000000   0.1428571), wk =   0.0466472
        k(    3) = (   0.0000000   0.0000000   0.2857143), wk =   0.0466472
        k(    4) = (   0.0000000   0.0000000   0.4285714), wk =   0.0466472
        k(    5) = (   0.0000000   0.1428571   0.1428571), wk =   0.0349854
        k(    6) = (   0.0000000   0.1428571   0.2857143), wk =   0.1399417
        k(    7) = (   0.0000000   0.1428571   0.4285714), wk =   0.1399417
        k(    8) = (   0.0000000   0.1428571  -0.4285714), wk =   0.1399417
        k(    9) = (   0.0000000   0.1428571  -0.2857143), wk =   0.1399417
        k(   10) = (   0.0000000   0.1428571  -0.1428571), wk =   0.0699708
        k(   11) = (   0.0000000   0.2857143   0.2857143), wk =   0.0349854
        k(   12) = (   0.0000000   0.2857143   0.4285714), wk =   0.1399417
        k(   13) = (   0.0000000   0.2857143  -0.4285714), wk =   0.1399417
        k(   14) = (   0.0000000   0.2857143  -0.2857143), wk =   0.0699708
        k(   15) = (   0.0000000   0.4285714   0.4285714), wk =   0.0349854
        k(   16) = (   0.0000000   0.4285714  -0.4285714), wk =   0.0699708
        k(   17) = (   0.1428571   0.2857143   0.4285714), wk =   0.1399417
        k(   18) = (   0.1428571   0.2857143  -0.4285714), wk =   0.2798834
        k(   19) = (   0.1428571   0.4285714  -0.4285714), wk =   0.1399417
        k(   20) = (   0.1428571   0.4285714  -0.2857143), wk =   0.1399417

     Dense  grid:    11017 G-vectors     FFT dimensions: (  32,  32,  32)

     Dynamical RAM for                 wfc:       0.02 MB

     Dynamical RAM for     wfc (w. buffer):       0.35 MB

     Dynamical RAM for           str. fact:       0.02 MB

     Dynamical RAM for           local pot:       0.00 MB

     Dynamical RAM for          nlocal pot:       0.08 MB

     Dynamical RAM for                qrad:       2.16 MB

     Dynamical RAM for          rho,v,vnew:       0.14 MB

     Dynamical RAM for               rhoin:       0.05 MB

     Dynamical RAM for            rho*nmix:       0.27 MB

     Dynamical RAM for           G-vectors:       0.07 MB

     Dynamical RAM for          h,s,v(r/c):       0.01 MB

     Dynamical RAM for          <psi|beta>:       0.00 MB

     Dynamical RAM for                 psi:       0.03 MB

     Dynamical RAM for                hpsi:       0.03 MB

     Dynamical RAM for                spsi:       0.03 MB

     Dynamical RAM for      wfcinit/wfcrot:       0.04 MB

     Dynamical RAM for           addusdens:       3.15 MB

     Dynamical RAM for          addusforce:       3.20 MB

     Dynamical RAM for         addusstress:       3.37 MB

     Estimated static dynamical RAM per process >       3.06 MB

     Estimated max dynamical RAM per process >       6.69 MB

     Estimated total dynamical RAM >      66.94 MB

     Initial potential from superposition of free atoms

     starting charge       7.9989, renormalised to       8.0000
     Starting wfcs are    8 randomized atomic wfcs
     Checking if some PAW data can be deallocated... 

     total cpu time spent up to now is        0.3 secs

     Self-consistent Calculation

     iteration #  1     ecut=    45.00 Ry     beta= 0.70
     Davidson diagonalization with overlap

---- Real-time Memory Report at c_bands before calling an iterative solver
            46 MiB given to the printing process from OS
             0 MiB allocation reported by mallinfo(arena+hblkhd)
         23143 MiB available memory on the node where the printing process lives
------------------
     ethr =  1.00E-02,  avg # of iterations =  4.0

     Threshold (ethr) on eigenvalues was too large:
     Diagonalizing with lowered threshold

     Davidson diagonalization with overlap

---- Real-time Memory Report at c_bands before calling an iterative solver
            46 MiB given to the printing process from OS
             0 MiB allocation reported by mallinfo(arena+hblkhd)
         23143 MiB available memory on the node where the printing process lives
------------------
     ethr =  6.27E-04,  avg # of iterations =  1.8

     total cpu time spent up to now is        0.5 secs

     total energy              =     -91.27342356 Ry
     estimated scf accuracy    <       0.05418079 Ry

     iteration #  2     ecut=    45.00 Ry     beta= 0.70
     Davidson diagonalization with overlap

---- Real-time Memory Report at c_bands before calling an iterative solver
            49 MiB given to the printing process from OS
             0 MiB allocation reported by mallinfo(arena+hblkhd)
         23136 MiB available memory on the node where the printing process lives
------------------
     ethr =  6.77E-04,  avg # of iterations =  1.0

     total cpu time spent up to now is        0.6 secs

     total energy              =     -91.27616249 Ry
     estimated scf accuracy    <       0.00185093 Ry

     iteration #  3     ecut=    45.00 Ry     beta= 0.70
     Davidson diagonalization with overlap

---- Real-time Memory Report at c_bands before calling an iterative solver
            49 MiB given to the printing process from OS
             0 MiB allocation reported by mallinfo(arena+hblkhd)
         23136 MiB available memory on the node where the printing process lives
------------------
     ethr =  2.31E-05,  avg # of iterations =  5.5

     total cpu time spent up to now is        0.8 secs

     total energy              =     -91.27632024 Ry
     estimated scf accuracy    <       0.00004824 Ry

     iteration #  4     ecut=    45.00 Ry     beta= 0.70
     Davidson diagonalization with overlap

---- Real-time Memory Report at c_bands before calling an iterative solver
            49 MiB given to the printing process from OS
             0 MiB allocation reported by mallinfo(arena+hblkhd)
         23132 MiB available memory on the node where the printing process lives
------------------
     ethr =  6.03E-07,  avg # of iterations =  2.5

     total cpu time spent up to now is        0.9 secs

     total energy              =     -91.27632907 Ry
     estimated scf accuracy    <       0.00000008 Ry

     iteration #  5     ecut=    45.00 Ry     beta= 0.70
     Davidson diagonalization with overlap

---- Real-time Memory Report at c_bands before calling an iterative solver
            49 MiB given to the printing process from OS
             0 MiB allocation reported by mallinfo(arena+hblkhd)
         23130 MiB available memory on the node where the printing process lives
------------------
     ethr =  9.60E-10,  avg # of iterations =  4.1

     total cpu time spent up to now is        1.0 secs

     End of self-consistent calculation

          k = 0.0000 0.0000 0.0000 (  1411 PWs)   bands (ev):

    -5.8600   6.0774   6.0774   6.0774   8.5959   8.5959   8.5959   9.2998

     occupation numbers 
     1.0000   1.0000   1.0000   1.0000   0.0000   0.0000   0.0000   0.0000

          k = 0.1010 0.1010-0.1010 (  1399 PWs)   bands (ev):

    -5.5947   4.1324   5.7187   5.7187   8.4358   9.1175   9.1175  10.9839

     occupation numbers 
     1.0000   1.0000   1.0000   1.0000   0.0000   0.0000   0.0000   0.0000

          k = 0.2020 0.2020-0.2020 (  1387 PWs)   bands (ev):

    -4.8299   1.5126   5.2038   5.2038   7.8849   9.5620   9.5621  13.3898

     occupation numbers 
     1.0000   1.0000   1.0000   1.0000   0.0000   0.0000   0.0000   0.0000

          k = 0.3030 0.3030-0.3030 (  1401 PWs)   bands (ev):

    -3.7883  -0.5193   4.9166   4.9166   7.5566   9.4018   9.4018  13.6579

     occupation numbers 
     1.0000   1.0000   1.0000   1.0000   0.0000   0.0000   0.0000   0.0000

          k = 0.2020 0.0000 0.0000 (  1399 PWs)   bands (ev):

    -5.5050   4.4340   5.0998   5.0998   7.8904  10.0034  10.0034  10.3951

     occupation numbers 
     1.0000   1.0000   1.0000   1.0000   0.0000   0.0000   0.0000   0.0000

          k = 0.3030 0.1010-0.1010 (  1387 PWs)   bands (ev):

    -4.8996   2.3104   4.5106   4.5578   8.0801   9.9137  10.5497  10.7808

     occupation numbers 
     1.0000   1.0000   1.0000   1.0000   0.0000   0.0000   0.0000   0.0000

          k = 0.4041 0.2020-0.2020 (  1392 PWs)   bands (ev):

    -3.8912   0.1249   3.8192   4.3708   8.1355   9.8291  10.5548  11.7708

     occupation numbers 
     1.0000   1.0000   1.0000   1.0000   0.0000   0.0000   0.0000   0.0000

          k =-0.2020-0.4041 0.4041 (  1392 PWs)   bands (ev):

    -3.3299  -0.7424   3.4037   4.5707   8.2357   9.7304  10.1557  14.1200

     occupation numbers 
     1.0000   1.0000   1.0000   1.0000   0.0000   0.0000   0.0000   0.0000

          k =-0.1010-0.3030 0.3030 (  1390 PWs)   bands (ev):

    -4.2598   0.8056   3.4056   5.0866   8.6468   9.9227   9.9314  12.6186

     occupation numbers 
     1.0000   1.0000   1.0000   1.0000   0.0000   0.0000   0.0000   0.0000

          k =-0.0000-0.2020 0.2020 (  1376 PWs)   bands (ev):

    -5.1596   2.9306   4.0947   5.6814   9.0661   9.3241   9.5623  11.6050

     occupation numbers 
     1.0000   1.0000   1.0000   1.0000   0.0000   0.0000   0.0000   0.0000

          k = 0.4041 0.0000 0.0000 (  1367 PWs)   bands (ev):

    -4.4570   1.9142   3.9346   3.9346   6.9209   8.5867  12.4103  12.4103

     occupation numbers 
     1.0000   1.0000   1.0000   1.0000   0.0000   0.0000   0.0000   0.0000

          k = 0.5051 0.1010-0.1010 (  1390 PWs)   bands (ev):

    -3.5559   0.4148   2.9420   3.6755   7.2000   8.6852  12.6178  12.7952

     occupation numbers 
     1.0000   1.0000   1.0000   1.0000   0.0000   0.0000   0.0000   0.0000

          k =-0.1010-0.5051 0.5051 (  1381 PWs)   bands (ev):

    -2.6355  -0.7662   1.9808   3.8455   7.4362  10.9306  12.2925  12.3481

     occupation numbers 
     1.0000   1.0000   1.0000   1.0000   0.0000   0.0000   0.0000   0.0000

          k = 0.0000-0.4041 0.4041 (  1388 PWs)   bands (ev):

    -3.2866  -0.0147   1.9044   4.3966   8.0506  11.4762  11.7787  12.5835

     occupation numbers 
     1.0000   1.0000   1.0000   1.0000   0.0000   0.0000   0.0000   0.0000

          k = 0.6061 0.0000 0.0000 (  1379 PWs)   bands (ev):

    -2.7739  -0.5792   3.3037   3.3037   6.5537   7.0644  15.0397  15.0397

     occupation numbers 
     1.0000   1.0000   1.0000   1.0000   0.0000   0.0000   0.0000   0.0000

          k = 0.0000-0.6061 0.6061 (  1376 PWs)   bands (ev):

    -1.8228  -1.5372   2.3918   3.3655   6.8530   8.1259  14.8170  15.2376

     occupation numbers 
     1.0000   1.0000   1.0000   1.0000   0.0000   0.0000   0.0000   0.0000

          k = 0.4041 0.2020 0.0000 (  1387 PWs)   bands (ev):

    -4.1483   1.1778   2.9425   4.2817   8.5874   9.8177  10.1473  12.1570

     occupation numbers 
     1.0000   1.0000   1.0000   1.0000   0.0000   0.0000   0.0000   0.0000

          k =-0.2020-0.4041 0.6061 (  1387 PWs)   bands (ev):

    -3.1055  -0.3557   2.3695   3.7400   9.0637   9.4821  11.4612  12.6027

     occupation numbers 
     1.0000   1.0000   1.0000   1.0000   0.0000   0.0000   0.0000   0.0000

          k =-0.1010-0.5051 0.7071 (  1395 PWs)   bands (ev):

    -2.5675  -0.6633   2.4585   2.8726   8.2052   8.5647  12.1520  14.6553

     occupation numbers 
     1.0000   1.0000   1.0000   1.0000   0.0000   0.0000   0.0000   0.0000

          k = 0.0000-0.4041 0.6061 (  1390 PWs)   bands (ev):

    -2.1281  -1.0606   1.8110   2.9645   8.7292  10.8282  11.6492  11.7794

     occupation numbers 
     1.0000   1.0000   1.0000   1.0000   0.0000   0.0000   0.0000   0.0000

     the Fermi energy is     6.3477 ev

!    total energy              =     -91.27632939 Ry
     total all-electron energy =     -1158.040558 Ry
     estimated scf accuracy    <          7.2E-09 Ry
     smearing contrib. (-TS)   =      -0.00000000 Ry
     internal energy E=F+TS    =     -91.27632939 Ry

     The total energy is F=E-TS. E is the sum of the following terms:
     one-electron contribution =       5.68606874 Ry
     hartree contribution      =       1.08844907 Ry
     xc contribution           =     -12.12934772 Ry
     ewald contribution        =     -16.75352038 Ry
     one-center paw contrib.   =     -69.16797910 Ry
      -> PAW hartree energy AE =       2.94354457 Ry
      -> PAW hartree energy PS =      -2.93207837 Ry
      -> PAW xc energy AE      =     -39.78039778 Ry
      -> PAW xc energy PS      =       5.18494202 Ry
      -> total E_H with PAW    =       1.09991527 Ry
      -> total E_XC with PAW   =     -46.72480347 Ry

     convergence has been achieved in   5 iterations

     Forces acting on atoms (cartesian axes, Ry/au):

     atom    1 type  1   force =    -0.00000000   -0.00000000   -0.00000000
     atom    2 type  1   force =     0.00000000    0.00000000    0.00000000
     The non-local contrib.  to forces
     atom    1 type  1   force =     0.00000000   -0.00000000   -0.00000000
     atom    2 type  1   force =    -0.00000000    0.00000000    0.00000000
     The ionic contribution  to forces
     atom    1 type  1   force =     0.00000000    0.00000000    0.00000000
     atom    2 type  1   force =     0.00000000   -0.00000000   -0.00000000
     The local contribution  to forces
     atom    1 type  1   force =    -0.00000000    0.00000000    0.00000000
     atom    2 type  1   force =    -0.00000000   -0.00000000   -0.00000000
     The core correction contribution to forces
     atom    1 type  1   force =    -0.00000000   -0.00000000   -0.00000000
     atom    2 type  1   force =     0.00000000    0.00000000    0.00000000
     The Hubbard contrib.    to forces
     atom    1 type  1   force =     0.00000000    0.00000000    0.00000000
     atom    2 type  1   force =     0.00000000    0.00000000    0.00000000
     The SCF correction term to forces
     atom    1 type  1   force =    -0.00000000   -0.00000000   -0.00000000
     atom    2 type  1   force =     0.00000000    0.00000000   -0.00000000

     Total force =     0.000000     Total SCF correction =     0.000000


     Computing stress (Cartesian axis) and pressure

          total   stress  (Ry/bohr**3)                   (kbar)     P=       -6.15
  -0.00004178  -0.00000000  -0.00000000           -6.15       -0.00       -0.00
  -0.00000000  -0.00004178  -0.00000000           -0.00       -6.15       -0.00
  -0.00000000  -0.00000000  -0.00004178           -0.00       -0.00       -6.15

     kinetic stress (kbar)   2182.43      0.00     -0.00
                                0.00   2182.43     -0.00
                               -0.00     -0.00   2182.43

     local   stress (kbar)     31.83     -0.00      0.00
                               -0.00     31.83     -0.00
                                0.00     -0.00     31.83

     nonloc. stress (kbar)   1612.19      0.00      0.00
                                0.00   1612.19      0.00
                                0.00      0.00   1612.19

     hartree stress (kbar)    196.00      0.00      0.00
                                0.00    196.00     -0.00
                                0.00     -0.00    196.00

     exc-cor stress (kbar)   2888.28      0.00      0.00
                                0.00   2888.28      0.00
                                0.00      0.00   2888.28

     corecor stress (kbar)  -3900.06     -0.00     -0.00
                               -0.00  -3900.06     -0.00
                               -0.00     -0.00  -3900.06

     ewald   stress (kbar)  -3016.81     -0.00     -0.00
                               -0.00  -3016.81     -0.00
                               -0.00     -0.00  -3016.81

     hubbard stress (kbar)      0.00      0.00      0.00
                                0.00      0.00      0.00
                                0.00      0.00      0.00

     DFT-D   stress (kbar)      0.00      0.00      0.00
                                0.00      0.00      0.00
                                0.00      0.00      0.00

     XDM     stress (kbar)      0.00      0.00      0.00
                                0.00      0.00      0.00
                                0.00      0.00      0.00

     dft-nl  stress (kbar)      0.00      0.00      0.00
                                0.00      0.00      0.00
                                0.00      0.00      0.00

     TS-vdW  stress (kbar)      0.00      0.00      0.00
                                0.00      0.00      0.00
                                0.00      0.00      0.00

     MDB     stress (kbar)      0.00      0.00      0.00
                                0.00      0.00      0.00
                                0.00      0.00      0.00

     3D-RISM stress (kbar)      0.00      0.00      0.00
                                0.00      0.00      0.00
                                0.00      0.00      0.00


     BFGS Geometry Optimization
     Energy error            =      0.0E+00 Ry
     Gradient error          =      2.1E-31 Ry/Bohr
     Cell gradient error     =      6.1E+00 kbar

     number of scf cycles    =   1
     number of bfgs steps    =   0

     enthalpy           new  =     -91.2763293900 Ry

     new trust radius        =       0.0034474341 bohr
ibrav =     -5
 celldm(1) =      7.26784593
 celldm(4) =      0.50000000
Input lattice vectors:
    -0.00000000     0.70636816     0.70636816
     0.70636816    -0.00000000     0.70636816
     0.70636816     0.70636816    -0.00000000
New lattice vectors in INITIAL alat:
     0.00000000     0.70636816     0.70636816
     0.70636816     0.00000000     0.70636816
     0.70636816     0.70636816     0.00000000
New lattice vectors in NEW alat (for information only):
     0.00000000     0.70710678     0.70710678
     0.70710678     0.00000000     0.70710678
     0.70710678     0.70710678     0.00000000
Discrepancy in bohr =     0.000000    0.000000    0.000000
     new conv_thr            =       0.0000000100 Ry

     new unit-cell volume =    271.45768 a.u.^3 (    40.22588 Ang^3 )
     density =      2.31876 g/cm^3

CELL_PARAMETERS (alat=  7.27544558)
   0.000000000   0.706368165   0.706368165
   0.706368165   0.000000000   0.706368165
   0.706368165   0.706368165   0.000000000

ATOMIC_POSITIONS (crystal)
Si               0.7500000000        0.7500000000        0.7500000000
Si               0.5000000000        0.5000000000        0.5000000000



     Writing config-only to output data dir ./temp/silicon.save/ :
     XML data file
     NEW-OLD atomic charge density approx. for the potential

     total cpu time spent up to now is        1.2 secs

     Self-consistent Calculation

     iteration #  1     ecut=    45.00 Ry     beta= 0.70
     Davidson diagonalization with overlap

---- Real-time Memory Report at c_bands before calling an iterative solver
            50 MiB given to the printing process from OS
             0 MiB allocation reported by mallinfo(arena+hblkhd)
         23122 MiB available memory on the node where the printing process lives
------------------
     ethr =  1.00E-06,  avg # of iterations =  2.0

     Threshold (ethr) on eigenvalues was too large:
     Diagonalizing with lowered threshold

     Davidson diagonalization with overlap

---- Real-time Memory Report at c_bands before calling an iterative solver
            50 MiB given to the printing process from OS
             0 MiB allocation reported by mallinfo(arena+hblkhd)
         23122 MiB available memory on the node where the printing process lives
------------------
     ethr =  6.16E-09,  avg # of iterations =  3.8

     total cpu time spent up to now is        1.4 secs

     total energy              =     -91.27635660 Ry
     estimated scf accuracy    <       0.00000035 Ry

     iteration #  2     ecut=    45.00 Ry     beta= 0.70
     Davidson diagonalization with overlap

---- Real-time Memory Report at c_bands before calling an iterative solver
            50 MiB given to the printing process from OS
             0 MiB allocation reported by mallinfo(arena+hblkhd)
         23122 MiB available memory on the node where the printing process lives
------------------
     ethr =  4.37E-09,  avg # of iterations =  1.1

     total cpu time spent up to now is        1.5 secs

     total energy              =     -91.27635659 Ry
     estimated scf accuracy    <       0.00000001 Ry

     iteration #  3     ecut=    45.00 Ry     beta= 0.70
     Davidson diagonalization with overlap

---- Real-time Memory Report at c_bands before calling an iterative solver
            50 MiB given to the printing process from OS
             0 MiB allocation reported by mallinfo(arena+hblkhd)
         23120 MiB available memory on the node where the printing process lives
------------------
     ethr =  1.28E-10,  avg # of iterations =  2.1

     total cpu time spent up to now is        1.7 secs

     End of self-consistent calculation

          k = 0.0000 0.0000 0.0000 (  1411 PWs)   bands (ev):

    -5.8488   6.1101   6.1101   6.1101   8.6299   8.6299   8.6299   9.3682

     occupation numbers 
     1.0000   1.0000   1.0000   1.0000   0.0000   0.0000   0.0000   0.0000

          k = 0.1011 0.1011-0.1011 (  1399 PWs)   bands (ev):

    -5.5828   4.1635   5.7503   5.7503   8.4782   9.1530   9.1530  11.0437

     occupation numbers 
     1.0000   1.0000   1.0000   1.0000   0.0000   0.0000   0.0000   0.0000

          k = 0.2022 0.2022-0.2022 (  1387 PWs)   bands (ev):

    -4.8158   1.5379   5.2342   5.2342   7.9286   9.5965   9.5965  13.4446

     occupation numbers 
     1.0000   1.0000   1.0000   1.0000   0.0000   0.0000   0.0000   0.0000

          k = 0.3034 0.3034-0.3034 (  1401 PWs)   bands (ev):

    -3.7705  -0.4998   4.9466   4.9466   7.6004   9.4335   9.4335  13.6955

     occupation numbers 
     1.0000   1.0000   1.0000   1.0000   0.0000   0.0000   0.0000   0.0000

          k = 0.2022 0.0000 0.0000 (  1399 PWs)   bands (ev):

    -5.4929   4.4697   5.1291   5.1291   7.9225  10.0418  10.0418  10.4492

     occupation numbers 
     1.0000   1.0000   1.0000   1.0000   0.0000   0.0000   0.0000   0.0000

          k = 0.3034 0.1011-0.1011 (  1387 PWs)   bands (ev):

    -4.8858   2.3397   4.5402   4.5857   8.1132   9.9599  10.5818  10.8200

     occupation numbers 
     1.0000   1.0000   1.0000   1.0000   0.0000   0.0000   0.0000   0.0000

          k = 0.4045 0.2022-0.2022 (  1392 PWs)   bands (ev):

    -3.8742   0.1476   3.8473   4.3985   8.1698   9.8697  10.5905  11.8098

     occupation numbers 
     1.0000   1.0000   1.0000   1.0000   0.0000   0.0000   0.0000   0.0000

          k =-0.2022-0.4045 0.4045 (  1392 PWs)   bands (ev):

    -3.3105  -0.7229   3.4303   4.5994   8.2723   9.7685  10.1896  14.1651

     occupation numbers 
     1.0000   1.0000   1.0000   1.0000   0.0000   0.0000   0.0000   0.0000

          k =-0.1011-0.3034 0.3034 (  1390 PWs)   bands (ev):

    -4.2440   0.8305   3.4313   5.1170   8.6873   9.9578   9.9680  12.6653

     occupation numbers 
     1.0000   1.0000   1.0000   1.0000   0.0000   0.0000   0.0000   0.0000

          k =-0.0000-0.2022 0.2022 (  1376 PWs)   bands (ev):

    -5.1465   2.9615   4.1208   5.7135   9.1099   9.3597   9.6000  11.6525

     occupation numbers 
     1.0000   1.0000   1.0000   1.0000   0.0000   0.0000   0.0000   0.0000

          k = 0.4045 0.0000 0.0000 (  1367 PWs)   bands (ev):

    -4.4420   1.9462   3.9608   3.9608   6.9500   8.6168  12.4547  12.4547

     occupation numbers 
     1.0000   1.0000   1.0000   1.0000   0.0000   0.0000   0.0000   0.0000

          k = 0.5056 0.1011-0.1011 (  1390 PWs)   bands (ev):

    -3.5383   0.4427   2.9648   3.7012   7.2289   8.7167  12.6659  12.8377

     occupation numbers 
     1.0000   1.0000   1.0000   1.0000   0.0000   0.0000   0.0000   0.0000

          k =-0.1011-0.5056 0.5056 (  1381 PWs)   bands (ev):

    -2.6143  -0.7428   2.0007   3.8717   7.4655  10.9666  12.3327  12.3976

     occupation numbers 
     1.0000   1.0000   1.0000   1.0000   0.0000   0.0000   0.0000   0.0000

          k = 0.0000-0.4045 0.4045 (  1388 PWs)   bands (ev):

    -3.2677   0.0112   1.9236   4.4245   8.0827  11.5170  11.8187  12.6350

     occupation numbers 
     1.0000   1.0000   1.0000   1.0000   0.0000   0.0000   0.0000   0.0000

          k = 0.6067 0.0000 0.0000 (  1379 PWs)   bands (ev):

    -2.7543  -0.5535   3.3283   3.3283   6.5809   7.0912  15.0910  15.0910

     occupation numbers 
     1.0000   1.0000   1.0000   1.0000   0.0000   0.0000   0.0000   0.0000

          k = 0.0000-0.6067 0.6067 (  1376 PWs)   bands (ev):

    -1.7999  -1.5143   2.4124   3.3904   6.8803   8.1569  14.8680  15.2960

     occupation numbers 
     1.0000   1.0000   1.0000   1.0000   0.0000   0.0000   0.0000   0.0000

          k = 0.4045 0.2022 0.0000 (  1387 PWs)   bands (ev):

    -4.1324   1.2067   2.9653   4.3091   8.6212   9.8526  10.1869  12.2003

     occupation numbers 
     1.0000   1.0000   1.0000   1.0000   0.0000   0.0000   0.0000   0.0000

          k =-0.2022-0.4045 0.6067 (  1387 PWs)   bands (ev):

    -3.0860  -0.3320   2.3917   3.7651   9.0977   9.5185  11.5014  12.6462

     occupation numbers 
     1.0000   1.0000   1.0000   1.0000   0.0000   0.0000   0.0000   0.0000

          k =-0.1011-0.5056 0.7078 (  1395 PWs)   bands (ev):

    -2.5469  -0.6374   2.4796   2.8945   8.2372   8.5960  12.1956  14.7066

     occupation numbers 
     1.0000   1.0000   1.0000   1.0000   0.0000   0.0000   0.0000   0.0000

          k = 0.0000-0.4045 0.6067 (  1390 PWs)   bands (ev):

    -2.1055  -1.0361   1.8292   2.9869   8.7619  10.8626  11.6940  11.8213

     occupation numbers 
     1.0000   1.0000   1.0000   1.0000   0.0000   0.0000   0.0000   0.0000

     the Fermi energy is     6.3862 ev

!    total energy              =     -91.27635659 Ry
     total all-electron energy =     -1158.040586 Ry
     estimated scf accuracy    <          6.9E-10 Ry
     smearing contrib. (-TS)   =      -0.00000000 Ry
     internal energy E=F+TS    =     -91.27635659 Ry

     The total energy is F=E-TS. E is the sum of the following terms:
     one-electron contribution =       5.71073296 Ry
     hartree contribution      =       1.08573442 Ry
     xc contribution           =     -12.13328346 Ry
     ewald contribution        =     -16.77103876 Ry
     one-center paw contrib.   =     -69.16850175 Ry
      -> PAW hartree energy AE =       2.95251924 Ry
      -> PAW hartree energy PS =      -2.94103499 Ry
      -> PAW xc energy AE      =     -39.78405302 Ry
      -> PAW xc energy PS      =       5.18831790 Ry
      -> total E_H with PAW    =       1.09721867 Ry
      -> total E_XC with PAW   =     -46.72901859 Ry

     convergence has been achieved in   3 iterations

     Forces acting on atoms (cartesian axes, Ry/au):

     atom    1 type  1   force =     0.00000000    0.00000000    0.00000000
     atom    2 type  1   force =     0.00000000    0.00000000    0.00000000
     The non-local contrib.  to forces
     atom    1 type  1   force =     0.00000000    0.00000000    0.00000000
     atom    2 type  1   force =     0.00000000   -0.00000000   -0.00000000
     The ionic contribution  to forces
     atom    1 type  1   force =     0.00000000    0.00000000    0.00000000
     atom    2 type  1   force =     0.00000000    0.00000000    0.00000000
     The local contribution  to forces
     atom    1 type  1   force =    -0.00000000   -0.00000000   -0.00000000
     atom    2 type  1   force =     0.00000000   -0.00000000   -0.00000000
     The core correction contribution to forces
     atom    1 type  1   force =    -0.00000000   -0.00000000   -0.00000000
     atom    2 type  1   force =    -0.00000000   -0.00000000   -0.00000000
     The Hubbard contrib.    to forces
     atom    1 type  1   force =     0.00000000    0.00000000    0.00000000
     atom    2 type  1   force =     0.00000000    0.00000000    0.00000000
     The SCF correction term to forces
     atom    1 type  1   force =    -0.00000000    0.00000000   -0.00000000
     atom    2 type  1   force =    -0.00000000   -0.00000000   -0.00000000

     Total force =     0.000000     Total SCF correction =     0.000000


     Computing stress (Cartesian axis) and pressure

          total   stress  (Ry/bohr**3)                   (kbar)     P=       -3.25
  -0.00002210   0.00000000   0.00000000           -3.25        0.00        0.00
   0.00000000  -0.00002210   0.00000000            0.00       -3.25        0.00
   0.00000000   0.00000000  -0.00002210            0.00        0.00       -3.25

     kinetic stress (kbar)   2192.15     -0.00     -0.00
                               -0.00   2192.15      0.00
                                0.00     -0.00   2192.15

     local   stress (kbar)     35.27      0.00      0.00
                                0.00     35.27      0.00
                                0.00      0.00     35.27

     nonloc. stress (kbar)   1618.36     -0.00     -0.00
                               -0.00   1618.36     -0.00
                               -0.00     -0.00   1618.36

     hartree stress (kbar)    196.12      0.00      0.00
                                0.00    196.12     -0.00
                                0.00     -0.00    196.12

     exc-cor stress (kbar)   2896.87     -0.00     -0.00
                               -0.00   2896.87     -0.00
                               -0.00     -0.00   2896.87

     corecor stress (kbar)  -3912.56     -0.00     -0.00
                               -0.00  -3912.56     -0.00
                               -0.00     -0.00  -3912.56

     ewald   stress (kbar)  -3029.45      0.00     -0.00
                                0.00  -3029.45     -0.00
                               -0.00     -0.00  -3029.45

     hubbard stress (kbar)      0.00      0.00      0.00
                                0.00      0.00      0.00
                                0.00      0.00      0.00

     DFT-D   stress (kbar)      0.00      0.00      0.00
                                0.00      0.00      0.00
                                0.00      0.00      0.00

     XDM     stress (kbar)      0.00      0.00      0.00
                                0.00      0.00      0.00
                                0.00      0.00      0.00

     dft-nl  stress (kbar)      0.00      0.00      0.00
                                0.00      0.00      0.00
                                0.00      0.00      0.00

     TS-vdW  stress (kbar)      0.00      0.00      0.00
                                0.00      0.00      0.00
                                0.00      0.00      0.00

     MDB     stress (kbar)      0.00      0.00      0.00
                                0.00      0.00      0.00
                                0.00      0.00      0.00

     3D-RISM stress (kbar)      0.00      0.00      0.00
                                0.00      0.00      0.00
                                0.00      0.00      0.00

     Energy error            =      2.7E-05 Ry
     Gradient error          =      0.0E+00 Ry/Bohr
     Cell gradient error     =      3.3E+00 kbar

     number of scf cycles    =   2
     number of bfgs steps    =   1

     enthalpy           old  =     -91.2763293900 Ry
     enthalpy           new  =     -91.2763565890 Ry

     CASE: enthalpy          _new < enthalpy          _old

     new trust radius        =       0.0038504171 bohr
ibrav =     -5
 celldm(1) =      7.25935349
 celldm(4) =      0.50000000
Input lattice vectors:
     0.00000000     0.70554278     0.70554278
     0.70554278     0.00000000     0.70554278
     0.70554278     0.70554278     0.00000000
New lattice vectors in INITIAL alat:
     0.00000000     0.70554278     0.70554278
     0.70554278     0.00000000     0.70554278
     0.70554278     0.70554278     0.00000000
New lattice vectors in NEW alat (for information only):
     0.00000000     0.70710678     0.70710678
     0.70710678     0.00000000     0.70710678
     0.70710678     0.70710678     0.00000000
Discrepancy in bohr =     0.000000    0.000000    0.000000
     new conv_thr            =            1.0E-10 Ry

     new unit-cell volume =    270.50720 a.u.^3 (    40.08503 Ang^3 )
     density =      2.32691 g/cm^3

CELL_PARAMETERS (alat=  7.27544558)
   0.000000000   0.705542777   0.705542777
   0.705542777   0.000000000   0.705542777
   0.705542777   0.705542777   0.000000000

ATOMIC_POSITIONS (crystal)
Si               0.7500000000        0.7500000000        0.7500000000
Si               0.5000000000        0.5000000000        0.5000000000



     Writing config-only to output data dir ./temp/silicon.save/ :
     XML data file
     NEW-OLD atomic charge density approx. for the potential

     total cpu time spent up to now is        1.9 secs

     Self-consistent Calculation

     iteration #  1     ecut=    45.00 Ry     beta= 0.70
     Davidson diagonalization with overlap

---- Real-time Memory Report at c_bands before calling an iterative solver
            50 MiB given to the printing process from OS
             0 MiB allocation reported by mallinfo(arena+hblkhd)
         23122 MiB available memory on the node where the printing process lives
------------------
     ethr =  1.00E-06,  avg # of iterations =  2.0

     Threshold (ethr) on eigenvalues was too large:
     Diagonalizing with lowered threshold

     Davidson diagonalization with overlap

---- Real-time Memory Report at c_bands before calling an iterative solver
            50 MiB given to the printing process from OS
             0 MiB allocation reported by mallinfo(arena+hblkhd)
         23122 MiB available memory on the node where the printing process lives
------------------
     ethr =  7.44E-09,  avg # of iterations =  3.9

     total cpu time spent up to now is        2.1 secs

     total energy              =     -91.27636697 Ry
     estimated scf accuracy    <       0.00000043 Ry

     iteration #  2     ecut=    45.00 Ry     beta= 0.70
     Davidson diagonalization with overlap

---- Real-time Memory Report at c_bands before calling an iterative solver
            50 MiB given to the printing process from OS
             0 MiB allocation reported by mallinfo(arena+hblkhd)
         23114 MiB available memory on the node where the printing process lives
------------------
     ethr =  5.32E-09,  avg # of iterations =  1.1

     total cpu time spent up to now is        2.2 secs

     total energy              =     -91.27636696 Ry
     estimated scf accuracy    <       0.00000001 Ry

     iteration #  3     ecut=    45.00 Ry     beta= 0.70
     Davidson diagonalization with overlap

---- Real-time Memory Report at c_bands before calling an iterative solver
            50 MiB given to the printing process from OS
             0 MiB allocation reported by mallinfo(arena+hblkhd)
         23114 MiB available memory on the node where the printing process lives
------------------
     ethr =  1.56E-10,  avg # of iterations =  2.1

     total cpu time spent up to now is        2.3 secs

     total energy              =     -91.27636696 Ry
     estimated scf accuracy    <          8.6E-10 Ry

     iteration #  4     ecut=    45.00 Ry     beta= 0.70
     Davidson diagonalization with overlap

---- Real-time Memory Report at c_bands before calling an iterative solver
            50 MiB given to the printing process from OS
             0 MiB allocation reported by mallinfo(arena+hblkhd)
         23114 MiB available memory on the node where the printing process lives
------------------
     ethr =  1.07E-11,  avg # of iterations =  2.0

     total cpu time spent up to now is        2.4 secs

     total energy              =     -91.27636696 Ry
     estimated scf accuracy    <          3.4E-10 Ry

     iteration #  5     ecut=    45.00 Ry     beta= 0.70
     Davidson diagonalization with overlap

---- Real-time Memory Report at c_bands before calling an iterative solver
            50 MiB given to the printing process from OS
             0 MiB allocation reported by mallinfo(arena+hblkhd)
         23114 MiB available memory on the node where the printing process lives
------------------
     ethr =  4.24E-12,  avg # of iterations =  1.6

     total cpu time spent up to now is        2.5 secs

     End of self-consistent calculation

          k = 0.0000 0.0000 0.0000 (  1411 PWs)   bands (ev):

    -5.8364   6.1466   6.1466   6.1466   8.6679   8.6679   8.6679   9.4446

     occupation numbers 
     1.0000   1.0000   1.0000   1.0000   0.0000   0.0000   0.0000   0.0000

          k = 0.1012 0.1012-0.1012 (  1399 PWs)   bands (ev):

    -5.5696   4.1983   5.7857   5.7857   8.5256   9.1928   9.1928  11.1108

     occupation numbers 
     1.0000   1.0000   1.0000   1.0000   0.0000   0.0000   0.0000   0.0000

          k = 0.2025 0.2025-0.2025 (  1387 PWs)   bands (ev):

    -4.8001   1.5663   5.2683   5.2683   7.9774   9.6351   9.6351  13.5057

     occupation numbers 
     1.0000   1.0000   1.0000   1.0000   0.0000   0.0000   0.0000   0.0000

          k = 0.3037 0.3037-0.3037 (  1401 PWs)   bands (ev):

    -3.7506  -0.4780   4.9801   4.9801   7.6494   9.4690   9.4690  13.7375

     occupation numbers 
     1.0000   1.0000   1.0000   1.0000   0.0000   0.0000   0.0000   0.0000

          k = 0.2025 0.0000 0.0000 (  1399 PWs)   bands (ev):

    -5.4794   4.5096   5.1619   5.1619   7.9584  10.0849  10.0849  10.5095

     occupation numbers 
     1.0000   1.0000   1.0000   1.0000   0.0000   0.0000   0.0000   0.0000

          k = 0.3037 0.1012-0.1012 (  1387 PWs)   bands (ev):

    -4.8704   2.3724   4.5733   4.6170   8.1502  10.0116  10.6176  10.8638

     occupation numbers 
     1.0000   1.0000   1.0000   1.0000   0.0000   0.0000   0.0000   0.0000

          k = 0.4050 0.2025-0.2025 (  1392 PWs)   bands (ev):

    -3.8552   0.1731   3.8788   4.4296   8.2081   9.9151  10.6304  11.8536

     occupation numbers 
     1.0000   1.0000   1.0000   1.0000   0.0000   0.0000   0.0000   0.0000

          k =-0.2025-0.4050 0.4050 (  1392 PWs)   bands (ev):

    -3.2887  -0.7012   3.4602   4.6314   8.3131   9.8111  10.2276  14.2157

     occupation numbers 
     1.0000   1.0000   1.0000   1.0000   0.0000   0.0000   0.0000   0.0000

          k =-0.1012-0.3037 0.3037 (  1390 PWs)   bands (ev):

    -4.2264   0.8583   3.4601   5.1509   8.7324   9.9971  10.0091  12.7176

     occupation numbers 
     1.0000   1.0000   1.0000   1.0000   0.0000   0.0000   0.0000   0.0000

          k =-0.0000-0.2025 0.2025 (  1376 PWs)   bands (ev):

    -5.1319   2.9961   4.1499   5.7494   9.1587   9.3996   9.6421  11.7055

     occupation numbers 
     1.0000   1.0000   1.0000   1.0000   0.0000   0.0000   0.0000   0.0000

          k = 0.4050 0.0000 0.0000 (  1367 PWs)   bands (ev):

    -4.4254   1.9819   3.9901   3.9901   6.9826   8.6504  12.5045  12.5045

     occupation numbers 
     1.0000   1.0000   1.0000   1.0000   0.0000   0.0000   0.0000   0.0000

          k = 0.5062 0.1012-0.1012 (  1390 PWs)   bands (ev):

    -3.5186   0.4738   2.9904   3.7298   7.2613   8.7518  12.7199  12.8853

     occupation numbers 
     1.0000   1.0000   1.0000   1.0000   0.0000   0.0000   0.0000   0.0000

          k =-0.1012-0.5062 0.5062 (  1381 PWs)   bands (ev):

    -2.5906  -0.7167   2.0229   3.9011   7.4983  11.0068  12.3777  12.4531

     occupation numbers 
     1.0000   1.0000   1.0000   1.0000   0.0000   0.0000   0.0000   0.0000

          k = 0.0000-0.4050 0.4050 (  1388 PWs)   bands (ev):

    -3.2466   0.0400   1.9451   4.4559   8.1187  11.5626  11.8634  12.6925

     occupation numbers 
     1.0000   1.0000   1.0000   1.0000   0.0000   0.0000   0.0000   0.0000

          k = 0.6074 0.0000 0.0000 (  1379 PWs)   bands (ev):

    -2.7324  -0.5247   3.3558   3.3558   6.6112   7.1212  15.1483  15.1483

     occupation numbers 
     1.0000   1.0000   1.0000   1.0000   0.0000   0.0000   0.0000   0.0000

          k = 0.0000-0.6074 0.6074 (  1376 PWs)   bands (ev):

    -1.7742  -1.4887   2.4353   3.4182   6.9107   8.1916  14.9251  15.3614

     occupation numbers 
     1.0000   1.0000   1.0000   1.0000   0.0000   0.0000   0.0000   0.0000

          k = 0.4050 0.2025 0.0000 (  1387 PWs)   bands (ev):

    -4.1145   1.2391   2.9907   4.3397   8.6590   9.8912  10.2316  12.2487

     occupation numbers 
     1.0000   1.0000   1.0000   1.0000   0.0000   0.0000   0.0000   0.0000

          k =-0.2025-0.4050 0.6074 (  1387 PWs)   bands (ev):

    -3.0641  -0.3054   2.4166   3.7932   9.1355   9.5592  11.5464  12.6950

     occupation numbers 
     1.0000   1.0000   1.0000   1.0000   0.0000   0.0000   0.0000   0.0000

          k =-0.1012-0.5062 0.7087 (  1395 PWs)   bands (ev):

    -2.5239  -0.6085   2.5031   2.9191   8.2728   8.6311  12.2444  14.7639

     occupation numbers 
     1.0000   1.0000   1.0000   1.0000   0.0000   0.0000   0.0000   0.0000

          k = 0.0000-0.4050 0.6074 (  1390 PWs)   bands (ev):

    -2.0802  -1.0088   1.8495   3.0119   8.7983  10.9010  11.7440  11.8682

     occupation numbers 
     1.0000   1.0000   1.0000   1.0000   0.0000   0.0000   0.0000   0.0000

     the Fermi energy is     6.4292 ev

!    total energy              =     -91.27636696 Ry
     total all-electron energy =     -1158.040596 Ry
     estimated scf accuracy    <          8.6E-13 Ry
     smearing contrib. (-TS)   =      -0.00000000 Ry
     internal energy E=F+TS    =     -91.27636696 Ry

     The total energy is F=E-TS. E is the sum of the following terms:
     one-electron contribution =       5.73839249 Ry
     hartree contribution      =       1.08269414 Ry
     xc contribution           =     -12.13769448 Ry
     ewald contribution        =     -16.79065856 Ry
     one-center paw contrib.   =     -69.16910056 Ry
      -> PAW hartree energy AE =       2.96259155 Ry
      -> PAW hartree energy PS =      -2.95108621 Ry
      -> PAW xc energy AE      =     -39.78815785 Ry
      -> PAW xc energy PS      =       5.19210223 Ry
      -> total E_H with PAW    =       1.09419949 Ry
      -> total E_XC with PAW   =     -46.73375010 Ry

     convergence has been achieved in   5 iterations

     Forces acting on atoms (cartesian axes, Ry/au):

     atom    1 type  1   force =     0.00000000    0.00000000    0.00000000
     atom    2 type  1   force =     0.00000000    0.00000000    0.00000000
     The non-local contrib.  to forces
     atom    1 type  1   force =    -0.00000000   -0.00000000    0.00000000
     atom    2 type  1   force =    -0.00000000    0.00000000    0.00000000
     The ionic contribution  to forces
     atom    1 type  1   force =    -0.00000000   -0.00000000   -0.00000000
     atom    2 type  1   force =    -0.00000000   -0.00000000    0.00000000
     The local contribution  to forces
     atom    1 type  1   force =    -0.00000000   -0.00000000   -0.00000000
     atom    2 type  1   force =     0.00000000    0.00000000    0.00000000
     The core correction contribution to forces
     atom    1 type  1   force =     0.00000000    0.00000000    0.00000000
     atom    2 type  1   force =     0.00000000    0.00000000    0.00000000
     The Hubbard contrib.    to forces
     atom    1 type  1   force =     0.00000000    0.00000000    0.00000000
     atom    2 type  1   force =     0.00000000    0.00000000    0.00000000
     The SCF correction term to forces
     atom    1 type  1   force =    -0.00000000   -0.00000000   -0.00000000
     atom    2 type  1   force =    -0.00000000   -0.00000000    0.00000000

     Total force =     0.000000     Total SCF correction =     0.000000


     Computing stress (Cartesian axis) and pressure

          total   stress  (Ry/bohr**3)                   (kbar)     P=        0.04
   0.00000029   0.00000000   0.00000000            0.04        0.00        0.00
   0.00000000   0.00000029   0.00000000            0.00        0.04        0.00
   0.00000000   0.00000000   0.00000029            0.00        0.00        0.04

     kinetic stress (kbar)   2203.07     -0.00     -0.00
                                0.00   2203.07     -0.00
                               -0.00     -0.00   2203.07

     local   stress (kbar)     39.14      0.00      0.00
                                0.00     39.14      0.00
                                0.00      0.00     39.14

     nonloc. stress (kbar)   1625.31      0.00     -0.00
                                0.00   1625.31     -0.00
                               -0.00     -0.00   1625.31

     hartree stress (kbar)    196.26      0.00      0.00
                                0.00    196.26     -0.00
                                0.00     -0.00    196.26

     exc-cor stress (kbar)   2906.51     -0.00     -0.00
                               -0.00   2906.51     -0.00
                               -0.00     -0.00   2906.51

     corecor stress (kbar)  -3926.60      0.00      0.00
                                0.00  -3926.60      0.00
                                0.00      0.00  -3926.60

     ewald   stress (kbar)  -3043.65     -0.00     -0.00
                               -0.00  -3043.65     -0.00
                               -0.00     -0.00  -3043.65

     hubbard stress (kbar)      0.00      0.00      0.00
                                0.00      0.00      0.00
                                0.00      0.00      0.00

     DFT-D   stress (kbar)      0.00      0.00      0.00
                                0.00      0.00      0.00
                                0.00      0.00      0.00

     XDM     stress (kbar)      0.00      0.00      0.00
                                0.00      0.00      0.00
                                0.00      0.00      0.00

     dft-nl  stress (kbar)      0.00      0.00      0.00
                                0.00      0.00      0.00
                                0.00      0.00      0.00

     TS-vdW  stress (kbar)      0.00      0.00      0.00
                                0.00      0.00      0.00
                                0.00      0.00      0.00

     MDB     stress (kbar)      0.00      0.00      0.00
                                0.00      0.00      0.00
                                0.00      0.00      0.00

     3D-RISM stress (kbar)      0.00      0.00      0.00
                                0.00      0.00      0.00
                                0.00      0.00      0.00

     Energy error            =      1.0E-05 Ry
     Gradient error          =      0.0E+00 Ry/Bohr
     Cell gradient error     =      4.3E-02 kbar

     number of scf cycles    =   3
     number of bfgs steps    =   2

     enthalpy           old  =     -91.2763565890 Ry
     enthalpy           new  =     -91.2763669612 Ry

     CASE: enthalpy          _new < enthalpy          _old

     small trust_radius: resetting bfgs history

     new trust radius        =       0.0000238362 bohr
ibrav =     -5
 celldm(1) =      7.25940609
 celldm(4) =      0.50000000
Input lattice vectors:
     0.00000000     0.70554789     0.70554789
     0.70554789     0.00000000     0.70554789
     0.70554789     0.70554789     0.00000000
New lattice vectors in INITIAL alat:
     0.00000000     0.70554789     0.70554789
     0.70554789     0.00000000     0.70554789
     0.70554789     0.70554789     0.00000000
New lattice vectors in NEW alat (for information only):
     0.00000000     0.70710678     0.70710678
     0.70710678     0.00000000     0.70710678
     0.70710678     0.70710678     0.00000000
Discrepancy in bohr =     0.000000    0.000000    0.000000
     new conv_thr            =            1.0E-10 Ry

     new unit-cell volume =    270.51308 a.u.^3 (    40.08590 Ang^3 )
     density =      2.32686 g/cm^3

CELL_PARAMETERS (alat=  7.27544558)
   0.000000000   0.705547890   0.705547890
   0.705547890   0.000000000   0.705547890
   0.705547890   0.705547890   0.000000000

ATOMIC_POSITIONS (crystal)
Si               0.7500000000        0.7500000000        0.7500000000
Si               0.5000000000        0.5000000000        0.5000000000



     Writing config-only to output data dir ./temp/silicon.save/ :
     XML data file
     NEW-OLD atomic charge density approx. for the potential

     total cpu time spent up to now is        2.7 secs

     Self-consistent Calculation

     iteration #  1     ecut=    45.00 Ry     beta= 0.70
     Davidson diagonalization with overlap

---- Real-time Memory Report at c_bands before calling an iterative solver
            50 MiB given to the printing process from OS
             0 MiB allocation reported by mallinfo(arena+hblkhd)
         23102 MiB available memory on the node where the printing process lives
------------------
     ethr =  1.00E-06,  avg # of iterations =  1.0

     Threshold (ethr) on eigenvalues was too large:
     Diagonalizing with lowered threshold

     Davidson diagonalization with overlap

---- Real-time Memory Report at c_bands before calling an iterative solver
            50 MiB given to the printing process from OS
             0 MiB allocation reported by mallinfo(arena+hblkhd)
         23102 MiB available memory on the node where the printing process lives
------------------
     ethr =  3.39E-13,  avg # of iterations =  4.0

     total cpu time spent up to now is        2.9 secs

     End of self-consistent calculation

          k = 0.0000 0.0000 0.0000 (  1411 PWs)   bands (ev):

    -5.8365   6.1464   6.1464   6.1464   8.6677   8.6677   8.6677   9.4442

     occupation numbers 
     1.0000   1.0000   1.0000   1.0000   0.0000   0.0000   0.0000   0.0000

          k = 0.1012 0.1012-0.1012 (  1399 PWs)   bands (ev):

    -5.5697   4.1981   5.7854   5.7854   8.5253   9.1925   9.1925  11.1104

     occupation numbers 
     1.0000   1.0000   1.0000   1.0000   0.0000   0.0000   0.0000   0.0000

          k = 0.2025 0.2025-0.2025 (  1387 PWs)   bands (ev):

    -4.8002   1.5661   5.2681   5.2681   7.9771   9.6349   9.6349  13.5054

     occupation numbers 
     1.0000   1.0000   1.0000   1.0000   0.0000   0.0000   0.0000   0.0000

          k = 0.3037 0.3037-0.3037 (  1401 PWs)   bands (ev):

    -3.7508  -0.4782   4.9799   4.9799   7.6491   9.4688   9.4688  13.7372

     occupation numbers 
     1.0000   1.0000   1.0000   1.0000   0.0000   0.0000   0.0000   0.0000

          k = 0.2025 0.0000 0.0000 (  1399 PWs)   bands (ev):

    -5.4795   4.5093   5.1617   5.1617   7.9582  10.0846  10.0846  10.5092

     occupation numbers 
     1.0000   1.0000   1.0000   1.0000   0.0000   0.0000   0.0000   0.0000

          k = 0.3037 0.1012-0.1012 (  1387 PWs)   bands (ev):

    -4.8705   2.3722   4.5731   4.6168   8.1499  10.0113  10.6174  10.8635

     occupation numbers 
     1.0000   1.0000   1.0000   1.0000   0.0000   0.0000   0.0000   0.0000

          k = 0.4050 0.2025-0.2025 (  1392 PWs)   bands (ev):

    -3.8553   0.1729   3.8786   4.4295   8.2079   9.9148  10.6302  11.8533

     occupation numbers 
     1.0000   1.0000   1.0000   1.0000   0.0000   0.0000   0.0000   0.0000

          k =-0.2025-0.4050 0.4050 (  1392 PWs)   bands (ev):

    -3.2888  -0.7013   3.4600   4.6312   8.3129   9.8109  10.2274  14.2154

     occupation numbers 
     1.0000   1.0000   1.0000   1.0000   0.0000   0.0000   0.0000   0.0000

          k =-0.1012-0.3037 0.3037 (  1390 PWs)   bands (ev):

    -4.2265   0.8582   3.4599   5.1507   8.7321   9.9969  10.0088  12.7173

     occupation numbers 
     1.0000   1.0000   1.0000   1.0000   0.0000   0.0000   0.0000   0.0000

          k =-0.0000-0.2025 0.2025 (  1376 PWs)   bands (ev):

    -5.1320   2.9959   4.1497   5.7491   9.1584   9.3993   9.6419  11.7052

     occupation numbers 
     1.0000   1.0000   1.0000   1.0000   0.0000   0.0000   0.0000   0.0000

          k = 0.4050 0.0000 0.0000 (  1367 PWs)   bands (ev):

    -4.4254   1.9817   3.9899   3.9899   6.9825   8.6502  12.5042  12.5042

     occupation numbers 
     1.0000   1.0000   1.0000   1.0000   0.0000   0.0000   0.0000   0.0000

          k = 0.5062 0.1012-0.1012 (  1390 PWs)   bands (ev):

    -3.5187   0.4737   2.9903   3.7297   7.2611   8.7516  12.7196  12.8850

     occupation numbers 
     1.0000   1.0000   1.0000   1.0000   0.0000   0.0000   0.0000   0.0000

          k =-0.1012-0.5062 0.5062 (  1381 PWs)   bands (ev):

    -2.5907  -0.7168   2.0228   3.9009   7.4981  11.0066  12.3774  12.4528

     occupation numbers 
     1.0000   1.0000   1.0000   1.0000   0.0000   0.0000   0.0000   0.0000

          k = 0.0000-0.4050 0.4050 (  1388 PWs)   bands (ev):

    -3.2468   0.0398   1.9450   4.4557   8.1185  11.5623  11.8631  12.6922

     occupation numbers 
     1.0000   1.0000   1.0000   1.0000   0.0000   0.0000   0.0000   0.0000

          k = 0.6074 0.0000 0.0000 (  1379 PWs)   bands (ev):

    -2.7325  -0.5249   3.3557   3.3557   6.6110   7.1210  15.1480  15.1480

     occupation numbers 
     1.0000   1.0000   1.0000   1.0000   0.0000   0.0000   0.0000   0.0000

          k = 0.0000-0.6074 0.6074 (  1376 PWs)   bands (ev):

    -1.7744  -1.4889   2.4352   3.4180   6.9105   8.1914  14.9247  15.3610

     occupation numbers 
     1.0000   1.0000   1.0000   1.0000   0.0000   0.0000   0.0000   0.0000

          k = 0.4050 0.2025 0.0000 (  1387 PWs)   bands (ev):

    -4.1146   1.2389   2.9905   4.3395   8.6588   9.8910  10.2313  12.2484

     occupation numbers 
     1.0000   1.0000   1.0000   1.0000   0.0000   0.0000   0.0000   0.0000

          k =-0.2025-0.4050 0.6074 (  1387 PWs)   bands (ev):

    -3.0642  -0.3056   2.4165   3.7930   9.1353   9.5589  11.5462  12.6947

     occupation numbers 
     1.0000   1.0000   1.0000   1.0000   0.0000   0.0000   0.0000   0.0000

          k =-0.1012-0.5062 0.7087 (  1395 PWs)   bands (ev):

    -2.5240  -0.6086   2.5029   2.9189   8.2726   8.6309  12.2441  14.7635

     occupation numbers 
     1.0000   1.0000   1.0000   1.0000   0.0000   0.0000   0.0000   0.0000

          k = 0.0000-0.4050 0.6074 (  1390 PWs)   bands (ev):

    -2.0803  -1.0089   1.8494   3.0118   8.7981  10.9008  11.7437  11.8679

     occupation numbers 
     1.0000   1.0000   1.0000   1.0000   0.0000   0.0000   0.0000   0.0000

     the Fermi energy is     6.4290 ev

!    total energy              =     -91.27636696 Ry
     total all-electron energy =     -1158.040596 Ry
     estimated scf accuracy    <          2.1E-11 Ry
     smearing contrib. (-TS)   =      -0.00000000 Ry
     internal energy E=F+TS    =     -91.27636696 Ry

     The total energy is F=E-TS. E is the sum of the following terms:
     one-electron contribution =       5.73822160 Ry
     hartree contribution      =       1.08271029 Ry
     xc contribution           =     -12.13766572 Ry
     ewald contribution        =     -16.79053689 Ry
     one-center paw contrib.   =     -69.16909625 Ry
      -> PAW hartree energy AE =       2.96252487 Ry
      -> PAW hartree energy PS =      -2.95101969 Ry
      -> PAW xc energy AE      =     -39.78813048 Ry
      -> PAW xc energy PS      =       5.19207717 Ry
      -> total E_H with PAW    =       1.09421548 Ry
      -> total E_XC with PAW   =     -46.73371903 Ry

     convergence has been achieved in   1 iterations

     Forces acting on atoms (cartesian axes, Ry/au):

     atom    1 type  1   force =     0.00000000    0.00000000    0.00000000
     atom    2 type  1   force =     0.00000000    0.00000000    0.00000000
     The non-local contrib.  to forces
     atom    1 type  1   force =     0.00000000    0.00000000    0.00000000
     atom    2 type  1   force =     0.00000000    0.00000000    0.00000000
     The ionic contribution  to forces
     atom    1 type  1   force =    -0.00000000   -0.00000000   -0.00000000
     atom    2 type  1   force =    -0.00000000   -0.00000000   -0.00000000
     The local contribution  to forces
     atom    1 type  1   force =    -0.00000000   -0.00000000   -0.00000000
     atom    2 type  1   force =     0.00000000    0.00000000    0.00000000
     The core correction contribution to forces
     atom    1 type  1   force =     0.00000000    0.00000000    0.00000000
     atom    2 type  1   force =     0.00000000    0.00000000    0.00000000
     The Hubbard contrib.    to forces
     atom    1 type  1   force =     0.00000000    0.00000000    0.00000000
     atom    2 type  1   force =     0.00000000    0.00000000    0.00000000
     The SCF correction term to forces
     atom    1 type  1   force =    -0.00000000   -0.00000000   -0.00000000
     atom    2 type  1   force =     0.00000000    0.00000000    0.00000000

     Total force =     0.000000     Total SCF correction =     0.000000


     Computing stress (Cartesian axis) and pressure

          total   stress  (Ry/bohr**3)                   (kbar)     P=        0.02
   0.00000014  -0.00000000  -0.00000000            0.02       -0.00       -0.00
  -0.00000000   0.00000014  -0.00000000           -0.00        0.02       -0.00
  -0.00000000  -0.00000000   0.00000014           -0.00       -0.00        0.02

     kinetic stress (kbar)   2203.00      0.00     -0.00
                                0.00   2203.00     -0.00
                               -0.00     -0.00   2203.00

     local   stress (kbar)     39.12      0.00      0.00
                                0.00     39.12      0.00
                                0.00      0.00     39.12

     nonloc. stress (kbar)   1625.27     -0.00      0.00
                               -0.00   1625.27      0.00
                                0.00     -0.00   1625.27

     hartree stress (kbar)    196.26     -0.00     -0.00
                               -0.00    196.26      0.00
                               -0.00      0.00    196.26

     exc-cor stress (kbar)   2906.45      0.00     -0.00
                                0.00   2906.45     -0.00
                               -0.00     -0.00   2906.45

     corecor stress (kbar)  -3926.51     -0.00     -0.00
                               -0.00  -3926.51     -0.00
                               -0.00     -0.00  -3926.51

     ewald   stress (kbar)  -3043.57     -0.00     -0.00
                               -0.00  -3043.57     -0.00
                               -0.00     -0.00  -3043.57

     hubbard stress (kbar)      0.00      0.00      0.00
                                0.00      0.00      0.00
                                0.00      0.00      0.00

     DFT-D   stress (kbar)      0.00      0.00      0.00
                                0.00      0.00      0.00
                                0.00      0.00      0.00

     XDM     stress (kbar)      0.00      0.00      0.00
                                0.00      0.00      0.00
                                0.00      0.00      0.00

     dft-nl  stress (kbar)      0.00      0.00      0.00
                                0.00      0.00      0.00
                                0.00      0.00      0.00

     TS-vdW  stress (kbar)      0.00      0.00      0.00
                                0.00      0.00      0.00
                                0.00      0.00      0.00

     MDB     stress (kbar)      0.00      0.00      0.00
                                0.00      0.00      0.00
                                0.00      0.00      0.00

     3D-RISM stress (kbar)      0.00      0.00      0.00
                                0.00      0.00      0.00
                                0.00      0.00      0.00

     Energy error            =      1.3E-09 Ry
     Gradient error          =      0.0E+00 Ry/Bohr
     Cell gradient error     =      2.0E-02 kbar
ibrav =     -5
 celldm(1) =      7.25940609
 celldm(4) =      0.50000000
Input lattice vectors:
     0.00000000     0.70554789     0.70554789
     0.70554789     0.00000000     0.70554789
     0.70554789     0.70554789     0.00000000
New lattice vectors in INITIAL alat:
     0.00000000     0.70554789     0.70554789
     0.70554789     0.00000000     0.70554789
     0.70554789     0.70554789     0.00000000
New lattice vectors in NEW alat (for information only):
     0.00000000     0.70710678     0.70710678
     0.70710678     0.00000000     0.70710678
     0.70710678     0.70710678     0.00000000
Discrepancy in bohr =     0.000000    0.000000    0.000000

     bfgs converged in   4 scf cycles and   3 bfgs steps
     (criteria: energy <  1.0E-05 Ry, force <  1.0E-04 Ry/Bohr, cell <  1.0E-01 kbar)

     End of BFGS Geometry Optimization

     Final enthalpy           =     -91.2763669625 Ry

     File ./temp/silicon.bfgs deleted, as requested
Begin final coordinates
     new unit-cell volume =    270.51308 a.u.^3 (    40.08590 Ang^3 )
     density =      2.32686 g/cm^3

CELL_PARAMETERS (alat=  7.27544558)
   0.000000000   0.705547890   0.705547890
   0.705547890   0.000000000   0.705547890
   0.705547890   0.705547890   0.000000000

ATOMIC_POSITIONS (crystal)
Si               0.7500000000        0.7500000000        0.7500000000
Si               0.5000000000        0.5000000000        0.5000000000
End final coordinates



     Writing config-only to output data dir ./temp/silicon.save/ :
     XML data file

     Final scf calculation at the relaxed structure.
     The G-vectors are recalculated for the final unit cell
     Results may differ from those at the preceding step.

     Parallelization info
     --------------------
     sticks:   dense  smooth     PW     G-vecs:    dense   smooth      PW
     Min          64      64     19                 1099     1099     189
     Max          65      65     20                 1102     1102     192
     Sum         649     649    199                11017    11017    1917

     Using Slab Decomposition



     bravais-lattice index     =           -5
     lattice parameter (alat)  =       7.2754  a.u.
     unit-cell volume          =     270.5131 (a.u.)^3
     number of atoms/cell      =            2
     number of atomic types    =            1
     number of electrons       =         8.00
     number of Kohn-Sham states=            8
     kinetic-energy cutoff     =      45.0000  Ry
     charge density cutoff     =     180.0000  Ry
     scf convergence threshold =      1.0E-10
     mixing beta               =       0.7000
     number of iterations used =            8  plain     mixing
     press convergence thresh. =      1.0E-01
     Exchange-correlation= SLA  PW   PSX  PSC
                           (   1   4  10   8   0   0   0)

     celldm(1)=   7.275446  celldm(2)=   0.000000  celldm(3)=   0.000000
     celldm(4)=   0.500000  celldm(5)=   0.000000  celldm(6)=   0.000000

     crystal axes: (cart. coord. in units of alat)
               a(1) = (   0.000000   0.705548   0.705548 )  
               a(2) = (   0.705548   0.000000   0.705548 )  
               a(3) = (   0.705548   0.705548   0.000000 )  

     reciprocal axes: (cart. coord. in units 2 pi/alat)
               b(1) = ( -0.708669  0.708669  0.708669 )  
               b(2) = (  0.708669 -0.708669  0.708669 )  
               b(3) = (  0.708669  0.708669 -0.708669 )  


     PseudoPot. # 1 for Si read from file:
     ./../../pseudos/Si.pbesol-n-kjpaw_psl.1.0.0.UPF
     MD5 check sum: 9fbd692c527d147d9ad0870b71777ff4
     Pseudo is Projector augmented-wave + core cor, Zval =  4.0
     Generated using &quot;atomic&quot; code by A. Dal Corso  v.6.3
     Shape of augmentation charge: PSQ
     Using radial grid of 1141 points,  6 beta functions with: 
                l(1) =   0
                l(2) =   0
                l(3) =   1
                l(4) =   1
                l(5) =   2
                l(6) =   2
     Q(r) pseudized with 0 coefficients 


     atomic species   valence    mass     pseudopotential
     Si                4.00    28.08550     Si( 1.00)

     48 Sym. Ops., with inversion, found (24 have fractional translation)


                                    s                        frac. trans.

      isym =  1     identity                                     

 cryst.   s( 1) = (     1          0          0      )
                  (     0          1          0      )
                  (     0          0          1      )

 cart.    s( 1) = (  1.0000000  0.0000000  0.0000000 )
                  (  0.0000000  1.0000000  0.0000000 )
                  (  0.0000000  0.0000000  1.0000000 )


      isym =  2     180 deg rotation - cart. axis [0,0,1]        

 cryst.   s( 2) = (     0          1         -1      )
                  (     1          0         -1      )
                  (     0          0         -1      )

 cart.    s( 2) = ( -1.0000000  0.0000000  0.0000000 )
                  (  0.0000000 -1.0000000  0.0000000 )
                  (  0.0000000  0.0000000  1.0000000 )


      isym =  3     180 deg rotation - cart. axis [0,1,0]        

 cryst.   s( 3) = (     0         -1          1      )
                  (     0         -1          0      )
                  (     1         -1          0      )

 cart.    s( 3) = ( -1.0000000  0.0000000  0.0000000 )
                  (  0.0000000  1.0000000  0.0000000 )
                  (  0.0000000  0.0000000 -1.0000000 )


      isym =  4     180 deg rotation - cart. axis [1,0,0]        

 cryst.   s( 4) = (    -1          0          0      )
                  (    -1          0          1      )
                  (    -1          1          0      )

 cart.    s( 4) = (  1.0000000  0.0000000  0.0000000 )
                  (  0.0000000 -1.0000000  0.0000000 )
                  (  0.0000000  0.0000000 -1.0000000 )


      isym =  5     180 deg rotation - cart. axis [1,1,0]        

 cryst.   s( 5) = (    -1          0          1      )    f =( -0.2500000 )
                  (     0         -1          1      )       ( -0.2500000 )
                  (     0          0          1      )       ( -0.2500000 )

 cart.    s( 5) = (  0.0000000  1.0000000  0.0000000 )    f =( -0.3527739 )
                  (  1.0000000  0.0000000  0.0000000 )       ( -0.3527739 )
                  (  0.0000000  0.0000000 -1.0000000 )       ( -0.3527739 )


      isym =  6     180 deg rotation - cart. axis [1,-1,0]       

 cryst.   s( 6) = (     0         -1          0      )    f =( -0.2500000 )
                  (    -1          0          0      )       ( -0.2500000 )
                  (     0          0         -1      )       ( -0.2500000 )

 cart.    s( 6) = (  0.0000000 -1.0000000  0.0000000 )    f =( -0.3527739 )
                  ( -1.0000000  0.0000000  0.0000000 )       ( -0.3527739 )
                  (  0.0000000  0.0000000 -1.0000000 )       ( -0.3527739 )


      isym =  7      90 deg rotation - cart. axis [0,0,-1]       

 cryst.   s( 7) = (     0          1          0      )    f =( -0.2500000 )
                  (     0          1         -1      )       ( -0.2500000 )
                  (    -1          1          0      )       ( -0.2500000 )

 cart.    s( 7) = (  0.0000000  1.0000000  0.0000000 )    f =( -0.3527739 )
                  ( -1.0000000  0.0000000  0.0000000 )       ( -0.3527739 )
                  (  0.0000000  0.0000000  1.0000000 )       ( -0.3527739 )


      isym =  8      90 deg rotation - cart. axis [0,0,1]        

 cryst.   s( 8) = (     1          0         -1      )    f =( -0.2500000 )
                  (     1          0          0      )       ( -0.2500000 )
                  (     1         -1          0      )       ( -0.2500000 )

 cart.    s( 8) = (  0.0000000 -1.0000000  0.0000000 )    f =( -0.3527739 )
                  (  1.0000000  0.0000000  0.0000000 )       ( -0.3527739 )
                  (  0.0000000  0.0000000  1.0000000 )       ( -0.3527739 )


      isym =  9     180 deg rotation - cart. axis [1,0,1]        

 cryst.   s( 9) = (    -1          1          0      )    f =( -0.2500000 )
                  (     0          1          0      )       ( -0.2500000 )
                  (     0          1         -1      )       ( -0.2500000 )

 cart.    s( 9) = (  0.0000000  0.0000000  1.0000000 )    f =( -0.3527739 )
                  (  0.0000000 -1.0000000  0.0000000 )       ( -0.3527739 )
                  (  1.0000000  0.0000000  0.0000000 )       ( -0.3527739 )


      isym = 10     180 deg rotation - cart. axis [-1,0,1]       

 cryst.   s(10) = (     0          0         -1      )    f =( -0.2500000 )
                  (     0         -1          0      )       ( -0.2500000 )
                  (    -1          0          0      )       ( -0.2500000 )

 cart.    s(10) = (  0.0000000  0.0000000 -1.0000000 )    f =( -0.3527739 )
                  (  0.0000000 -1.0000000  0.0000000 )       ( -0.3527739 )
                  ( -1.0000000  0.0000000  0.0000000 )       ( -0.3527739 )


      isym = 11      90 deg rotation - cart. axis [0,1,0]        

 cryst.   s(11) = (     0          0          1      )    f =( -0.2500000 )
                  (    -1          0          1      )       ( -0.2500000 )
                  (     0         -1          1      )       ( -0.2500000 )

 cart.    s(11) = (  0.0000000  0.0000000  1.0000000 )    f =( -0.3527739 )
                  (  0.0000000  1.0000000  0.0000000 )       ( -0.3527739 )
                  ( -1.0000000  0.0000000  0.0000000 )       ( -0.3527739 )


      isym = 12      90 deg rotation - cart. axis [0,-1,0]       

 cryst.   s(12) = (     1         -1          0      )    f =( -0.2500000 )
                  (     1          0         -1      )       ( -0.2500000 )
                  (     1          0          0      )       ( -0.2500000 )

 cart.    s(12) = (  0.0000000  0.0000000 -1.0000000 )    f =( -0.3527739 )
                  (  0.0000000  1.0000000  0.0000000 )       ( -0.3527739 )
                  (  1.0000000  0.0000000  0.0000000 )       ( -0.3527739 )


      isym = 13     180 deg rotation - cart. axis [0,1,1]        

 cryst.   s(13) = (     1          0          0      )    f =( -0.2500000 )
                  (     1         -1          0      )       ( -0.2500000 )
                  (     1          0         -1      )       ( -0.2500000 )

 cart.    s(13) = ( -1.0000000  0.0000000  0.0000000 )    f =( -0.3527739 )
                  (  0.0000000  0.0000000  1.0000000 )       ( -0.3527739 )
                  (  0.0000000  1.0000000  0.0000000 )       ( -0.3527739 )


      isym = 14     180 deg rotation - cart. axis [0,1,-1]       

 cryst.   s(14) = (    -1          0          0      )    f =( -0.2500000 )
                  (     0          0         -1      )       ( -0.2500000 )
                  (     0         -1          0      )       ( -0.2500000 )

 cart.    s(14) = ( -1.0000000  0.0000000  0.0000000 )    f =( -0.3527739 )
                  (  0.0000000  0.0000000 -1.0000000 )       ( -0.3527739 )
                  (  0.0000000 -1.0000000  0.0000000 )       ( -0.3527739 )


      isym = 15      90 deg rotation - cart. axis [-1,0,0]       

 cryst.   s(15) = (     0         -1          1      )    f =( -0.2500000 )
                  (     0          0          1      )       ( -0.2500000 )
                  (    -1          0          1      )       ( -0.2500000 )

 cart.    s(15) = (  1.0000000  0.0000000  0.0000000 )    f =( -0.3527739 )
                  (  0.0000000  0.0000000  1.0000000 )       ( -0.3527739 )
                  (  0.0000000 -1.0000000  0.0000000 )       ( -0.3527739 )


      isym = 16      90 deg rotation - cart. axis [1,0,0]        

 cryst.   s(16) = (     0          1         -1      )    f =( -0.2500000 )
                  (    -1          1          0      )       ( -0.2500000 )
                  (     0          1          0      )       ( -0.2500000 )

 cart.    s(16) = (  1.0000000  0.0000000  0.0000000 )    f =( -0.3527739 )
                  (  0.0000000  0.0000000 -1.0000000 )       ( -0.3527739 )
                  (  0.0000000  1.0000000  0.0000000 )       ( -0.3527739 )


      isym = 17     120 deg rotation - cart. axis [-1,-1,-1]     

 cryst.   s(17) = (     0          0          1      )
                  (     1          0          0      )
                  (     0          1          0      )

 cart.    s(17) = (  0.0000000  1.0000000  0.0000000 )
                  (  0.0000000  0.0000000  1.0000000 )
                  (  1.0000000  0.0000000  0.0000000 )


      isym = 18     120 deg rotation - cart. axis [-1,1,1]       

 cryst.   s(18) = (     1         -1          0      )
                  (     0         -1          1      )
                  (     0         -1          0      )

 cart.    s(18) = (  0.0000000 -1.0000000  0.0000000 )
                  (  0.0000000  0.0000000  1.0000000 )
                  ( -1.0000000  0.0000000  0.0000000 )


      isym = 19     120 deg rotation - cart. axis [1,1,-1]       

 cryst.   s(19) = (    -1          1          0      )
                  (    -1          0          0      )
                  (    -1          0          1      )

 cart.    s(19) = (  0.0000000  1.0000000  0.0000000 )
                  (  0.0000000  0.0000000 -1.0000000 )
                  ( -1.0000000  0.0000000  0.0000000 )


      isym = 20     120 deg rotation - cart. axis [1,-1,1]       

 cryst.   s(20) = (     0          0         -1      )
                  (     0          1         -1      )
                  (     1          0         -1      )

 cart.    s(20) = (  0.0000000 -1.0000000  0.0000000 )
                  (  0.0000000  0.0000000 -1.0000000 )
                  (  1.0000000  0.0000000  0.0000000 )


      isym = 21     120 deg rotation - cart. axis [1,1,1]        

 cryst.   s(21) = (     0          1          0      )
                  (     0          0          1      )
                  (     1          0          0      )

 cart.    s(21) = (  0.0000000  0.0000000  1.0000000 )
                  (  1.0000000  0.0000000  0.0000000 )
                  (  0.0000000  1.0000000  0.0000000 )


      isym = 22     120 deg rotation - cart. axis [-1,1,-1]      

 cryst.   s(22) = (    -1          0          1      )
                  (    -1          1          0      )
                  (    -1          0          0      )

 cart.    s(22) = (  0.0000000  0.0000000  1.0000000 )
                  ( -1.0000000  0.0000000  0.0000000 )
                  (  0.0000000 -1.0000000  0.0000000 )


      isym = 23     120 deg rotation - cart. axis [1,-1,-1]      

 cryst.   s(23) = (     1          0         -1      )
                  (     0          0         -1      )
                  (     0          1         -1      )

 cart.    s(23) = (  0.0000000  0.0000000 -1.0000000 )
                  ( -1.0000000  0.0000000  0.0000000 )
                  (  0.0000000  1.0000000  0.0000000 )


      isym = 24     120 deg rotation - cart. axis [-1,-1,1]      

 cryst.   s(24) = (     0         -1          0      )
                  (     1         -1          0      )
                  (     0         -1          1      )

 cart.    s(24) = (  0.0000000  0.0000000 -1.0000000 )
                  (  1.0000000  0.0000000  0.0000000 )
                  (  0.0000000 -1.0000000  0.0000000 )


      isym = 25     inversion                                    

 cryst.   s(25) = (    -1          0          0      )    f =( -0.2500000 )
                  (     0         -1          0      )       ( -0.2500000 )
                  (     0          0         -1      )       ( -0.2500000 )

 cart.    s(25) = ( -1.0000000  0.0000000  0.0000000 )    f =( -0.3527739 )
                  (  0.0000000 -1.0000000  0.0000000 )       ( -0.3527739 )
                  (  0.0000000  0.0000000 -1.0000000 )       ( -0.3527739 )


      isym = 26     inv. 180 deg rotation - cart. axis [0,0,1]   

 cryst.   s(26) = (     0         -1          1      )    f =( -0.2500000 )
                  (    -1          0          1      )       ( -0.2500000 )
                  (     0          0          1      )       ( -0.2500000 )

 cart.    s(26) = (  1.0000000  0.0000000  0.0000000 )    f =( -0.3527739 )
                  (  0.0000000  1.0000000  0.0000000 )       ( -0.3527739 )
                  (  0.0000000  0.0000000 -1.0000000 )       ( -0.3527739 )


      isym = 27     inv. 180 deg rotation - cart. axis [0,1,0]   

 cryst.   s(27) = (     0          1         -1      )    f =( -0.2500000 )
                  (     0          1          0      )       ( -0.2500000 )
                  (    -1          1          0      )       ( -0.2500000 )

 cart.    s(27) = (  1.0000000  0.0000000  0.0000000 )    f =( -0.3527739 )
                  (  0.0000000 -1.0000000  0.0000000 )       ( -0.3527739 )
                  (  0.0000000  0.0000000  1.0000000 )       ( -0.3527739 )


      isym = 28     inv. 180 deg rotation - cart. axis [1,0,0]   

 cryst.   s(28) = (     1          0          0      )    f =( -0.2500000 )
                  (     1          0         -1      )       ( -0.2500000 )
                  (     1         -1          0      )       ( -0.2500000 )

 cart.    s(28) = ( -1.0000000  0.0000000  0.0000000 )    f =( -0.3527739 )
                  (  0.0000000  1.0000000  0.0000000 )       ( -0.3527739 )
                  (  0.0000000  0.0000000  1.0000000 )       ( -0.3527739 )


      isym = 29     inv. 180 deg rotation - cart. axis [1,1,0]   

 cryst.   s(29) = (     1          0         -1      )
                  (     0          1         -1      )
                  (     0          0         -1      )

 cart.    s(29) = (  0.0000000 -1.0000000  0.0000000 )
                  ( -1.0000000  0.0000000  0.0000000 )
                  (  0.0000000  0.0000000  1.0000000 )


      isym = 30     inv. 180 deg rotation - cart. axis [1,-1,0]  

 cryst.   s(30) = (     0          1          0      )
                  (     1          0          0      )
                  (     0          0          1      )

 cart.    s(30) = (  0.0000000  1.0000000  0.0000000 )
                  (  1.0000000  0.0000000  0.0000000 )
                  (  0.0000000  0.0000000  1.0000000 )


      isym = 31     inv.  90 deg rotation - cart. axis [0,0,-1]  

 cryst.   s(31) = (     0         -1          0      )
                  (     0         -1          1      )
                  (     1         -1          0      )

 cart.    s(31) = (  0.0000000 -1.0000000  0.0000000 )
                  (  1.0000000  0.0000000  0.0000000 )
                  (  0.0000000  0.0000000 -1.0000000 )


      isym = 32     inv.  90 deg rotation - cart. axis [0,0,1]   

 cryst.   s(32) = (    -1          0          1      )
                  (    -1          0          0      )
                  (    -1          1          0      )

 cart.    s(32) = (  0.0000000  1.0000000  0.0000000 )
                  ( -1.0000000  0.0000000  0.0000000 )
                  (  0.0000000  0.0000000 -1.0000000 )


      isym = 33     inv. 180 deg rotation - cart. axis [1,0,1]   

 cryst.   s(33) = (     1         -1          0      )
                  (     0         -1          0      )
                  (     0         -1          1      )

 cart.    s(33) = (  0.0000000  0.0000000 -1.0000000 )
                  (  0.0000000  1.0000000  0.0000000 )
                  ( -1.0000000  0.0000000  0.0000000 )


      isym = 34     inv. 180 deg rotation - cart. axis [-1,0,1]  

 cryst.   s(34) = (     0          0          1      )
                  (     0          1          0      )
                  (     1          0          0      )

 cart.    s(34) = (  0.0000000  0.0000000  1.0000000 )
                  (  0.0000000  1.0000000  0.0000000 )
                  (  1.0000000  0.0000000  0.0000000 )


      isym = 35     inv.  90 deg rotation - cart. axis [0,1,0]   

 cryst.   s(35) = (     0          0         -1      )
                  (     1          0         -1      )
                  (     0          1         -1      )

 cart.    s(35) = (  0.0000000  0.0000000 -1.0000000 )
                  (  0.0000000 -1.0000000  0.0000000 )
                  (  1.0000000  0.0000000  0.0000000 )


      isym = 36     inv.  90 deg rotation - cart. axis [0,-1,0]  

 cryst.   s(36) = (    -1          1          0      )
                  (    -1          0          1      )
                  (    -1          0          0      )

 cart.    s(36) = (  0.0000000  0.0000000  1.0000000 )
                  (  0.0000000 -1.0000000  0.0000000 )
                  ( -1.0000000  0.0000000  0.0000000 )


      isym = 37     inv. 180 deg rotation - cart. axis [0,1,1]   

 cryst.   s(37) = (    -1          0          0      )
                  (    -1          1          0      )
                  (    -1          0          1      )

 cart.    s(37) = (  1.0000000  0.0000000  0.0000000 )
                  (  0.0000000  0.0000000 -1.0000000 )
                  (  0.0000000 -1.0000000  0.0000000 )


      isym = 38     inv. 180 deg rotation - cart. axis [0,1,-1]  

 cryst.   s(38) = (     1          0          0      )
                  (     0          0          1      )
                  (     0          1          0      )

 cart.    s(38) = (  1.0000000  0.0000000  0.0000000 )
                  (  0.0000000  0.0000000  1.0000000 )
                  (  0.0000000  1.0000000  0.0000000 )


      isym = 39     inv.  90 deg rotation - cart. axis [-1,0,0]  

 cryst.   s(39) = (     0          1         -1      )
                  (     0          0         -1      )
                  (     1          0         -1      )

 cart.    s(39) = ( -1.0000000  0.0000000  0.0000000 )
                  (  0.0000000  0.0000000 -1.0000000 )
                  (  0.0000000  1.0000000  0.0000000 )


      isym = 40     inv.  90 deg rotation - cart. axis [1,0,0]   

 cryst.   s(40) = (     0         -1          1      )
                  (     1         -1          0      )
                  (     0         -1          0      )

 cart.    s(40) = ( -1.0000000  0.0000000  0.0000000 )
                  (  0.0000000  0.0000000  1.0000000 )
                  (  0.0000000 -1.0000000  0.0000000 )


      isym = 41     inv. 120 deg rotation - cart. axis [-1,-1,-1]

 cryst.   s(41) = (     0          0         -1      )    f =( -0.2500000 )
                  (    -1          0          0      )       ( -0.2500000 )
                  (     0         -1          0      )       ( -0.2500000 )

 cart.    s(41) = (  0.0000000 -1.0000000  0.0000000 )    f =( -0.3527739 )
                  (  0.0000000  0.0000000 -1.0000000 )       ( -0.3527739 )
                  ( -1.0000000  0.0000000  0.0000000 )       ( -0.3527739 )


      isym = 42     inv. 120 deg rotation - cart. axis [-1,1,1]  

 cryst.   s(42) = (    -1          1          0      )    f =( -0.2500000 )
                  (     0          1         -1      )       ( -0.2500000 )
                  (     0          1          0      )       ( -0.2500000 )

 cart.    s(42) = (  0.0000000  1.0000000  0.0000000 )    f =( -0.3527739 )
                  (  0.0000000  0.0000000 -1.0000000 )       ( -0.3527739 )
                  (  1.0000000  0.0000000  0.0000000 )       ( -0.3527739 )


      isym = 43     inv. 120 deg rotation - cart. axis [1,1,-1]  

 cryst.   s(43) = (     1         -1          0      )    f =( -0.2500000 )
                  (     1          0          0      )       ( -0.2500000 )
                  (     1          0         -1      )       ( -0.2500000 )

 cart.    s(43) = (  0.0000000 -1.0000000  0.0000000 )    f =( -0.3527739 )
                  (  0.0000000  0.0000000  1.0000000 )       ( -0.3527739 )
                  (  1.0000000  0.0000000  0.0000000 )       ( -0.3527739 )


      isym = 44     inv. 120 deg rotation - cart. axis [1,-1,1]  

 cryst.   s(44) = (     0          0          1      )    f =( -0.2500000 )
                  (     0         -1          1      )       ( -0.2500000 )
                  (    -1          0          1      )       ( -0.2500000 )

 cart.    s(44) = (  0.0000000  1.0000000  0.0000000 )    f =( -0.3527739 )
                  (  0.0000000  0.0000000  1.0000000 )       ( -0.3527739 )
                  ( -1.0000000  0.0000000  0.0000000 )       ( -0.3527739 )


      isym = 45     inv. 120 deg rotation - cart. axis [1,1,1]   

 cryst.   s(45) = (     0         -1          0      )    f =( -0.2500000 )
                  (     0          0         -1      )       ( -0.2500000 )
                  (    -1          0          0      )       ( -0.2500000 )

 cart.    s(45) = (  0.0000000  0.0000000 -1.0000000 )    f =( -0.3527739 )
                  ( -1.0000000  0.0000000  0.0000000 )       ( -0.3527739 )
                  (  0.0000000 -1.0000000  0.0000000 )       ( -0.3527739 )


      isym = 46     inv. 120 deg rotation - cart. axis [-1,1,-1] 

 cryst.   s(46) = (     1          0         -1      )    f =( -0.2500000 )
                  (     1         -1          0      )       ( -0.2500000 )
                  (     1          0          0      )       ( -0.2500000 )

 cart.    s(46) = (  0.0000000  0.0000000 -1.0000000 )    f =( -0.3527739 )
                  (  1.0000000  0.0000000  0.0000000 )       ( -0.3527739 )
                  (  0.0000000  1.0000000  0.0000000 )       ( -0.3527739 )


      isym = 47     inv. 120 deg rotation - cart. axis [1,-1,-1] 

 cryst.   s(47) = (    -1          0          1      )    f =( -0.2500000 )
                  (     0          0          1      )       ( -0.2500000 )
                  (     0         -1          1      )       ( -0.2500000 )

 cart.    s(47) = (  0.0000000  0.0000000  1.0000000 )    f =( -0.3527739 )
                  (  1.0000000  0.0000000  0.0000000 )       ( -0.3527739 )
                  (  0.0000000 -1.0000000  0.0000000 )       ( -0.3527739 )


      isym = 48     inv. 120 deg rotation - cart. axis [-1,-1,1] 

 cryst.   s(48) = (     0          1          0      )    f =( -0.2500000 )
                  (    -1          1          0      )       ( -0.2500000 )
                  (     0          1         -1      )       ( -0.2500000 )

 cart.    s(48) = (  0.0000000  0.0000000  1.0000000 )    f =( -0.3527739 )
                  ( -1.0000000  0.0000000  0.0000000 )       ( -0.3527739 )
                  (  0.0000000  1.0000000  0.0000000 )       ( -0.3527739 )


     point group O_h (m-3m) 
     there are 10 classes
     the character table:

       E     8C3   3C2   6C4   6C2'  i     8S6   3s_h  6S4   6s_d 
A_1g   1.00  1.00  1.00  1.00  1.00  1.00  1.00  1.00  1.00  1.00
A_2g   1.00  1.00  1.00 -1.00 -1.00  1.00  1.00  1.00 -1.00 -1.00
E_g    2.00 -1.00  2.00  0.00  0.00  2.00 -1.00  2.00  0.00  0.00
T_1g   3.00  0.00 -1.00  1.00 -1.00  3.00  0.00 -1.00  1.00 -1.00
T_2g   3.00  0.00 -1.00 -1.00  1.00  3.00  0.00 -1.00 -1.00  1.00
A_1u   1.00  1.00  1.00  1.00  1.00 -1.00 -1.00 -1.00 -1.00 -1.00
A_2u   1.00  1.00  1.00 -1.00 -1.00 -1.00 -1.00 -1.00  1.00  1.00
E_u    2.00 -1.00  2.00  0.00  0.00 -2.00  1.00 -2.00  0.00  0.00
T_1u   3.00  0.00 -1.00  1.00 -1.00 -3.00  0.00  1.00 -1.00  1.00
T_2u   3.00  0.00 -1.00 -1.00  1.00 -3.00  0.00  1.00  1.00 -1.00

     the symmetry operations in each class and the name of the first element:

     E        1
          identity                                               
     8C3     17   19   20   18   24   21   22   23
          120 deg rotation - cart. axis [-1,-1,-1]               
     3C2      2    4    3
          180 deg rotation - cart. axis [0,0,1]                  
     6C4      7    8   15   16   12   11
           90 deg rotation - cart. axis [0,0,-1]                 
     6C2'     5    6   14   13   10    9
          180 deg rotation - cart. axis [1,1,0]                  
     i       25
          inversion                                              
     8S6     41   43   44   42   48   45   46   47
          inv. 120 deg rotation - cart. axis [-1,-1,-1]          
     3s_h    26   28   27
          inv. 180 deg rotation - cart. axis [0,0,1]             
     6S4     31   32   39   40   36   35
          inv.  90 deg rotation - cart. axis [0,0,-1]            
     6s_d    29   30   38   37   34   33
          inv. 180 deg rotation - cart. axis [1,1,0]             

   Cartesian axes

     site n.     atom                  positions (alat units)
         1        Si     tau(   1) = (   1.0583218   1.0583218   1.0583218  )
         2        Si     tau(   2) = (   0.7055479   0.7055479   0.7055479  )

   Crystallographic axes

     site n.     atom                  positions (cryst. coord.)
         1        Si     tau(   1) = (  0.7500000  0.7500000  0.7500000  )
         2        Si     tau(   2) = (  0.5000000  0.5000000  0.5000000  )

     number of k points=    20  Gaussian smearing, width (Ry)=  0.0005
                       cart. coord. in units 2pi/alat
        k(    1) = (   0.0000000   0.0000000   0.0000000), wk =   0.0058309
        k(    2) = (   0.1012384   0.1012384  -0.1012384), wk =   0.0466472
        k(    3) = (   0.2024769   0.2024769  -0.2024769), wk =   0.0466472
        k(    4) = (   0.3037153   0.3037153  -0.3037153), wk =   0.0466472
        k(    5) = (   0.2024769   0.0000000   0.0000000), wk =   0.0349854
        k(    6) = (   0.3037153   0.1012384  -0.1012384), wk =   0.1399417
        k(    7) = (   0.4049538   0.2024769  -0.2024769), wk =   0.1399417
        k(    8) = (  -0.2024769  -0.4049538   0.4049538), wk =   0.1399417
        k(    9) = (  -0.1012384  -0.3037153   0.3037153), wk =   0.1399417
        k(   10) = (  -0.0000000  -0.2024769   0.2024769), wk =   0.0699708
        k(   11) = (   0.4049538   0.0000000   0.0000000), wk =   0.0349854
        k(   12) = (   0.5061922   0.1012384  -0.1012384), wk =   0.1399417
        k(   13) = (  -0.1012384  -0.5061922   0.5061922), wk =   0.1399417
        k(   14) = (   0.0000000  -0.4049538   0.4049538), wk =   0.0699708
        k(   15) = (   0.6074307   0.0000000   0.0000000), wk =   0.0349854
        k(   16) = (   0.0000000  -0.6074307   0.6074307), wk =   0.0699708
        k(   17) = (   0.4049538   0.2024769   0.0000000), wk =   0.1399417
        k(   18) = (  -0.2024769  -0.4049538   0.6074307), wk =   0.2798834
        k(   19) = (  -0.1012384  -0.5061922   0.7086691), wk =   0.1399417
        k(   20) = (   0.0000000  -0.4049538   0.6074307), wk =   0.1399417

                       cryst. coord.
        k(    1) = (   0.0000000   0.0000000   0.0000000), wk =   0.0058309
        k(    2) = (   0.0000000   0.0000000   0.1428571), wk =   0.0466472
        k(    3) = (   0.0000000   0.0000000   0.2857143), wk =   0.0466472
        k(    4) = (   0.0000000   0.0000000   0.4285714), wk =   0.0466472
        k(    5) = (   0.0000000   0.1428571   0.1428571), wk =   0.0349854
        k(    6) = (   0.0000000   0.1428571   0.2857143), wk =   0.1399417
        k(    7) = (   0.0000000   0.1428571   0.4285714), wk =   0.1399417
        k(    8) = (   0.0000000   0.1428571  -0.4285714), wk =   0.1399417
        k(    9) = (   0.0000000   0.1428571  -0.2857143), wk =   0.1399417
        k(   10) = (   0.0000000   0.1428571  -0.1428571), wk =   0.0699708
        k(   11) = (   0.0000000   0.2857143   0.2857143), wk =   0.0349854
        k(   12) = (   0.0000000   0.2857143   0.4285714), wk =   0.1399417
        k(   13) = (   0.0000000   0.2857143  -0.4285714), wk =   0.1399417
        k(   14) = (   0.0000000   0.2857143  -0.2857143), wk =   0.0699708
        k(   15) = (   0.0000000   0.4285714   0.4285714), wk =   0.0349854
        k(   16) = (   0.0000000   0.4285714  -0.4285714), wk =   0.0699708
        k(   17) = (   0.1428571   0.2857143   0.4285714), wk =   0.1399417
        k(   18) = (   0.1428571   0.2857143  -0.4285714), wk =   0.2798834
        k(   19) = (   0.1428571   0.4285714  -0.4285714), wk =   0.1399417
        k(   20) = (   0.1428571   0.4285714  -0.2857143), wk =   0.1399417

     Dense  grid:    11017 G-vectors     FFT dimensions: (  32,  32,  32)

     Dynamical RAM for                 wfc:       0.02 MB

     Dynamical RAM for     wfc (w. buffer):       0.35 MB

     Dynamical RAM for           str. fact:       0.02 MB

     Dynamical RAM for           local pot:       0.01 MB

     Dynamical RAM for          nlocal pot:       0.08 MB

     Dynamical RAM for                qrad:       2.16 MB

     Dynamical RAM for          rho,v,vnew:       0.14 MB

     Dynamical RAM for               rhoin:       0.05 MB

     Dynamical RAM for            rho*nmix:       0.27 MB

     Dynamical RAM for           G-vectors:       0.07 MB

     Dynamical RAM for          h,s,v(r/c):       0.01 MB

     Dynamical RAM for          <psi|beta>:       0.00 MB

     Dynamical RAM for                 psi:       0.03 MB

     Dynamical RAM for                hpsi:       0.03 MB

     Dynamical RAM for                spsi:       0.03 MB

     Dynamical RAM for      wfcinit/wfcrot:       0.03 MB

     Dynamical RAM for           addusdens:       3.15 MB

     Dynamical RAM for          addusforce:       3.20 MB

     Dynamical RAM for         addusstress:       3.37 MB

     Estimated static dynamical RAM per process >       3.06 MB

     Estimated max dynamical RAM per process >       6.70 MB

     Estimated total dynamical RAM >      66.99 MB

     Initial potential from superposition of free atoms

     starting charge       7.9989, renormalised to       8.0000
     Starting wfcs are    8 randomized atomic wfcs
     Checking if some PAW data can be deallocated... 

     total cpu time spent up to now is        3.1 secs

     Self-consistent Calculation

     iteration #  1     ecut=    45.00 Ry     beta= 0.70
     Davidson diagonalization with overlap

---- Real-time Memory Report at c_bands before calling an iterative solver
            50 MiB given to the printing process from OS
             0 MiB allocation reported by mallinfo(arena+hblkhd)
         23110 MiB available memory on the node where the printing process lives
------------------
     c_bands:  1 eigenvalues not converged
     c_bands:  1 eigenvalues not converged
     c_bands:  1 eigenvalues not converged
     c_bands:  1 eigenvalues not converged
     c_bands:  1 eigenvalues not converged
     c_bands:  1 eigenvalues not converged
     ethr =  1.00E-06,  avg # of iterations = 16.1

     total cpu time spent up to now is        3.5 secs

     total energy              =     -91.27343009 Ry
     estimated scf accuracy    <       0.05582360 Ry

     iteration #  2     ecut=    45.00 Ry     beta= 0.70
     Davidson diagonalization with overlap

---- Real-time Memory Report at c_bands before calling an iterative solver
            50 MiB given to the printing process from OS
             0 MiB allocation reported by mallinfo(arena+hblkhd)
         23110 MiB available memory on the node where the printing process lives
------------------
     ethr =  6.98E-04,  avg # of iterations =  1.0

     total cpu time spent up to now is        3.6 secs

     total energy              =     -91.27621928 Ry
     estimated scf accuracy    <       0.00175143 Ry

     iteration #  3     ecut=    45.00 Ry     beta= 0.70
     Davidson diagonalization with overlap

---- Real-time Memory Report at c_bands before calling an iterative solver
            50 MiB given to the printing process from OS
             0 MiB allocation reported by mallinfo(arena+hblkhd)
         23110 MiB available memory on the node where the printing process lives
------------------
     ethr =  2.19E-05,  avg # of iterations =  1.6

     total cpu time spent up to now is        3.7 secs

     total energy              =     -91.27635056 Ry
     estimated scf accuracy    <       0.00004004 Ry

     iteration #  4     ecut=    45.00 Ry     beta= 0.70
     Davidson diagonalization with overlap

---- Real-time Memory Report at c_bands before calling an iterative solver
            50 MiB given to the printing process from OS
             0 MiB allocation reported by mallinfo(arena+hblkhd)
         23110 MiB available memory on the node where the printing process lives
------------------
     ethr =  5.01E-07,  avg # of iterations =  2.8

     total cpu time spent up to now is        3.8 secs

     total energy              =     -91.27636446 Ry
     estimated scf accuracy    <       0.00000152 Ry

     iteration #  5     ecut=    45.00 Ry     beta= 0.70
     Davidson diagonalization with overlap

---- Real-time Memory Report at c_bands before calling an iterative solver
            50 MiB given to the printing process from OS
             0 MiB allocation reported by mallinfo(arena+hblkhd)
         23112 MiB available memory on the node where the printing process lives
------------------
     ethr =  1.90E-08,  avg # of iterations =  2.0

     total cpu time spent up to now is        3.9 secs

     total energy              =     -91.27636485 Ry
     estimated scf accuracy    <       0.00000019 Ry

     iteration #  6     ecut=    45.00 Ry     beta= 0.70
     Davidson diagonalization with overlap

---- Real-time Memory Report at c_bands before calling an iterative solver
            50 MiB given to the printing process from OS
             0 MiB allocation reported by mallinfo(arena+hblkhd)
         23105 MiB available memory on the node where the printing process lives
------------------
     ethr =  2.42E-09,  avg # of iterations =  2.0

     total cpu time spent up to now is        4.0 secs

     total energy              =     -91.27636489 Ry
     estimated scf accuracy    <          1.1E-09 Ry

     iteration #  7     ecut=    45.00 Ry     beta= 0.70
     Davidson diagonalization with overlap

---- Real-time Memory Report at c_bands before calling an iterative solver
            50 MiB given to the printing process from OS
             0 MiB allocation reported by mallinfo(arena+hblkhd)
         23105 MiB available memory on the node where the printing process lives
------------------
     ethr =  1.43E-11,  avg # of iterations =  4.0

     total cpu time spent up to now is        4.2 secs

     total energy              =     -91.27636489 Ry
     estimated scf accuracy    <          3.1E-10 Ry

     iteration #  8     ecut=    45.00 Ry     beta= 0.70
     Davidson diagonalization with overlap

---- Real-time Memory Report at c_bands before calling an iterative solver
            50 MiB given to the printing process from OS
             0 MiB allocation reported by mallinfo(arena+hblkhd)
         23104 MiB available memory on the node where the printing process lives
------------------
     ethr =  3.91E-12,  avg # of iterations =  1.1

     total cpu time spent up to now is        4.3 secs

     End of self-consistent calculation

          k = 0.0000 0.0000 0.0000 (  1411 PWs)   bands (ev):

    -5.8365   6.1464   6.1464   6.1464   8.6677   8.6677   8.6677   9.4442

     occupation numbers 
     1.0000   1.0000   1.0000   1.0000   0.0000   0.0000   0.0000   0.0000

          k = 0.1012 0.1012-0.1012 (  1393 PWs)   bands (ev):

    -5.5697   4.1981   5.7854   5.7854   8.5253   9.1925   9.1925  11.1104

     occupation numbers 
     1.0000   1.0000   1.0000   1.0000   0.0000   0.0000   0.0000   0.0000

          k = 0.2025 0.2025-0.2025 (  1378 PWs)   bands (ev):

    -4.8002   1.5661   5.2681   5.2681   7.9771   9.6349   9.6349  13.5054

     occupation numbers 
     1.0000   1.0000   1.0000   1.0000   0.0000   0.0000   0.0000   0.0000

          k = 0.3037 0.3037-0.3037 (  1383 PWs)   bands (ev):

    -3.7508  -0.4782   4.9799   4.9799   7.6491   9.4688   9.4688  13.7372

     occupation numbers 
     1.0000   1.0000   1.0000   1.0000   0.0000   0.0000   0.0000   0.0000

          k = 0.2025 0.0000 0.0000 (  1379 PWs)   bands (ev):

    -5.4795   4.5093   5.1617   5.1617   7.9582  10.0846  10.0846  10.5092

     occupation numbers 
     1.0000   1.0000   1.0000   1.0000   0.0000   0.0000   0.0000   0.0000

          k = 0.3037 0.1012-0.1012 (  1362 PWs)   bands (ev):

    -4.8705   2.3722   4.5731   4.6168   8.1500  10.0113  10.6174  10.8635

     occupation numbers 
     1.0000   1.0000   1.0000   1.0000   0.0000   0.0000   0.0000   0.0000

          k = 0.4050 0.2025-0.2025 (  1387 PWs)   bands (ev):

    -3.8553   0.1729   3.8786   4.4294   8.2079   9.9148  10.6301  11.8533

     occupation numbers 
     1.0000   1.0000   1.0000   1.0000   0.0000   0.0000   0.0000   0.0000

          k =-0.2025-0.4050 0.4050 (  1392 PWs)   bands (ev):

    -3.2888  -0.7013   3.4600   4.6312   8.3129   9.8109  10.2273  14.2154

     occupation numbers 
     1.0000   1.0000   1.0000   1.0000   0.0000   0.0000   0.0000   0.0000

          k =-0.1012-0.3037 0.3037 (  1381 PWs)   bands (ev):

    -4.2265   0.8582   3.4599   5.1507   8.7321   9.9969  10.0088  12.7173

     occupation numbers 
     1.0000   1.0000   1.0000   1.0000   0.0000   0.0000   0.0000   0.0000

          k =-0.0000-0.2025 0.2025 (  1376 PWs)   bands (ev):

    -5.1320   2.9959   4.1497   5.7491   9.1584   9.3993   9.6419  11.7052

     occupation numbers 
     1.0000   1.0000   1.0000   1.0000   0.0000   0.0000   0.0000   0.0000

          k = 0.4050 0.0000 0.0000 (  1367 PWs)   bands (ev):

    -4.4254   1.9817   3.9899   3.9899   6.9824   8.6502  12.5042  12.5042

     occupation numbers 
     1.0000   1.0000   1.0000   1.0000   0.0000   0.0000   0.0000   0.0000

          k = 0.5062 0.1012-0.1012 (  1377 PWs)   bands (ev):

    -3.5187   0.4737   2.9903   3.7297   7.2611   8.7516  12.7196  12.8850

     occupation numbers 
     1.0000   1.0000   1.0000   1.0000   0.0000   0.0000   0.0000   0.0000

          k =-0.1012-0.5062 0.5062 (  1375 PWs)   bands (ev):

    -2.5908  -0.7168   2.0228   3.9009   7.4981  11.0066  12.3774  12.4528

     occupation numbers 
     1.0000   1.0000   1.0000   1.0000   0.0000   0.0000   0.0000   0.0000

          k = 0.0000-0.4050 0.4050 (  1366 PWs)   bands (ev):

    -3.2468   0.0398   1.9450   4.4557   8.1185  11.5623  11.8631  12.6922

     occupation numbers 
     1.0000   1.0000   1.0000   1.0000   0.0000   0.0000   0.0000   0.0000

          k = 0.6074 0.0000 0.0000 (  1379 PWs)   bands (ev):

    -2.7325  -0.5249   3.3557   3.3557   6.6110   7.1210  15.1480  15.1480

     occupation numbers 
     1.0000   1.0000   1.0000   1.0000   0.0000   0.0000   0.0000   0.0000

          k = 0.0000-0.6074 0.6074 (  1372 PWs)   bands (ev):

    -1.7744  -1.4889   2.4352   3.4180   6.9105   8.1914  14.9247  15.3610

     occupation numbers 
     1.0000   1.0000   1.0000   1.0000   0.0000   0.0000   0.0000   0.0000

          k = 0.4050 0.2025 0.0000 (  1375 PWs)   bands (ev):

    -4.1146   1.2389   2.9905   4.3395   8.6588   9.8910  10.2313  12.2484

     occupation numbers 
     1.0000   1.0000   1.0000   1.0000   0.0000   0.0000   0.0000   0.0000

          k =-0.2025-0.4050 0.6074 (  1383 PWs)   bands (ev):

    -3.0643  -0.3056   2.4165   3.7930   9.1353   9.5589  11.5462  12.6947

     occupation numbers 
     1.0000   1.0000   1.0000   1.0000   0.0000   0.0000   0.0000   0.0000

          k =-0.1012-0.5062 0.7087 (  1375 PWs)   bands (ev):

    -2.5241  -0.6086   2.5029   2.9189   8.2726   8.6309  12.2441  14.7636

     occupation numbers 
     1.0000   1.0000   1.0000   1.0000   0.0000   0.0000   0.0000   0.0000

          k = 0.0000-0.4050 0.6074 (  1385 PWs)   bands (ev):

    -2.0803  -1.0089   1.8494   3.0118   8.7981  10.9007  11.7437  11.8679

     occupation numbers 
     1.0000   1.0000   1.0000   1.0000   0.0000   0.0000   0.0000   0.0000

     the Fermi energy is     6.4290 ev

!    total energy              =     -91.27636489 Ry
     total all-electron energy =     -1158.040594 Ry
     estimated scf accuracy    <          2.3E-11 Ry
     smearing contrib. (-TS)   =      -0.00000000 Ry
     internal energy E=F+TS    =     -91.27636489 Ry

     The total energy is F=E-TS. E is the sum of the following terms:
     one-electron contribution =       5.73822357 Ry
     hartree contribution      =       1.08271163 Ry
     xc contribution           =     -12.13766665 Ry
     ewald contribution        =     -16.79053689 Ry
     one-center paw contrib.   =     -69.16909655 Ry
      -> PAW hartree energy AE =       2.96257155 Ry
      -> PAW hartree energy PS =      -2.95106644 Ry
      -> PAW xc energy AE      =     -39.78814804 Ry
      -> PAW xc energy PS      =       5.19209465 Ry
      -> total E_H with PAW    =       1.09421674 Ry
      -> total E_XC with PAW   =     -46.73372004 Ry

     convergence has been achieved in   8 iterations

     Forces acting on atoms (cartesian axes, Ry/au):

     atom    1 type  1   force =     0.00000000    0.00000000    0.00000000
     atom    2 type  1   force =    -0.00000000   -0.00000000   -0.00000000
     The non-local contrib.  to forces
     atom    1 type  1   force =    -0.00000000   -0.00000000    0.00000000
     atom    2 type  1   force =     0.00000000    0.00000000   -0.00000000
     The ionic contribution  to forces
     atom    1 type  1   force =    -0.00000000   -0.00000000   -0.00000000
     atom    2 type  1   force =    -0.00000000   -0.00000000   -0.00000000
     The local contribution  to forces
     atom    1 type  1   force =    -0.00000000   -0.00000000   -0.00000000
     atom    2 type  1   force =     0.00000000    0.00000000    0.00000000
     The core correction contribution to forces
     atom    1 type  1   force =     0.00000000    0.00000000    0.00000000
     atom    2 type  1   force =     0.00000000    0.00000000    0.00000000
     The Hubbard contrib.    to forces
     atom    1 type  1   force =     0.00000000    0.00000000    0.00000000
     atom    2 type  1   force =     0.00000000    0.00000000    0.00000000
     The SCF correction term to forces
     atom    1 type  1   force =    -0.00000000    0.00000000    0.00000000
     atom    2 type  1   force =    -0.00000000   -0.00000000    0.00000000

     Total force =     0.000000     Total SCF correction =     0.000000


     Computing stress (Cartesian axis) and pressure

          total   stress  (Ry/bohr**3)                   (kbar)     P=        0.02
   0.00000013  -0.00000000  -0.00000000            0.02       -0.00       -0.00
  -0.00000000   0.00000013  -0.00000000           -0.00        0.02       -0.00
  -0.00000000  -0.00000000   0.00000013           -0.00       -0.00        0.02

     kinetic stress (kbar)   2203.00     -0.00     -0.00
                               -0.00   2203.00     -0.00
                               -0.00     -0.00   2203.00

     local   stress (kbar)     39.11      0.00      0.00
                                0.00     39.11      0.00
                                0.00      0.00     39.11

     nonloc. stress (kbar)   1625.27      0.00      0.00
                                0.00   1625.27      0.00
                                0.00      0.00   1625.27

     hartree stress (kbar)    196.26      0.00      0.00
                                0.00    196.26      0.00
                                0.00      0.00    196.26

     exc-cor stress (kbar)   2906.45     -0.00     -0.00
                               -0.00   2906.45     -0.00
                               -0.00     -0.00   2906.45

     corecor stress (kbar)  -3926.51     -0.00      0.00
                               -0.00  -3926.51      0.00
                                0.00      0.00  -3926.51

     ewald   stress (kbar)  -3043.57     -0.00     -0.00
                               -0.00  -3043.57     -0.00
                               -0.00     -0.00  -3043.57

     hubbard stress (kbar)      0.00      0.00      0.00
                                0.00      0.00      0.00
                                0.00      0.00      0.00

     DFT-D   stress (kbar)      0.00      0.00      0.00
                                0.00      0.00      0.00
                                0.00      0.00      0.00

     XDM     stress (kbar)      0.00      0.00      0.00
                                0.00      0.00      0.00
                                0.00      0.00      0.00

     dft-nl  stress (kbar)      0.00      0.00      0.00
                                0.00      0.00      0.00
                                0.00      0.00      0.00

     TS-vdW  stress (kbar)      0.00      0.00      0.00
                                0.00      0.00      0.00
                                0.00      0.00      0.00

     MDB     stress (kbar)      0.00      0.00      0.00
                                0.00      0.00      0.00
                                0.00      0.00      0.00

     3D-RISM stress (kbar)      0.00      0.00      0.00
                                0.00      0.00      0.00
                                0.00      0.00      0.00


     Writing all to output data dir ./temp/silicon.save/ :
     XML data file, charge density, pseudopotentials, collected wavefunctions

     init_run     :      0.28s CPU      0.31s WALL (       2 calls)
     electrons    :      2.99s CPU      3.21s WALL (       5 calls)
     update_pot   :      0.13s CPU      0.15s WALL (       3 calls)
     forces       :      0.09s CPU      0.09s WALL (       5 calls)
     stress       :      0.35s CPU      0.35s WALL (       5 calls)

     Called by init_run:
     wfcinit      :      0.05s CPU      0.05s WALL (       2 calls)
     wfcinit:atom :      0.00s CPU      0.00s WALL (      40 calls)
     wfcinit:wfcr :      0.05s CPU      0.05s WALL (      40 calls)
     potinit      :      0.08s CPU      0.10s WALL (       2 calls)
     hinit0       :      0.13s CPU      0.13s WALL (       2 calls)

     Called by electrons:
     c_bands      :      1.71s CPU      1.76s WALL (      26 calls)
     sum_band     :      0.34s CPU      0.35s WALL (      26 calls)
     v_of_rho     :      0.04s CPU      0.04s WALL (      27 calls)
     v_h          :      0.00s CPU      0.00s WALL (      27 calls)
     v_xc         :      0.05s CPU      0.06s WALL (      37 calls)
     newd         :      0.09s CPU      0.10s WALL (      27 calls)
     PAW_pot      :      1.13s CPU      1.33s WALL (      30 calls)
     mix_rho      :      0.00s CPU      0.00s WALL (      26 calls)

     Called by c_bands:
     init_us_2    :      0.06s CPU      0.06s WALL (    1340 calls)
     cegterg      :      1.60s CPU      1.65s WALL (     520 calls)

     Called by sum_band:
     sum_band:wei :      0.00s CPU      0.00s WALL (      26 calls)
     sum_band:loo :      0.22s CPU      0.23s WALL (      26 calls)
     sum_band:buf :      0.00s CPU      0.00s WALL (     520 calls)
     sum_band:ini :      0.02s CPU      0.02s WALL (     520 calls)
     sum_band:cal :      0.06s CPU      0.06s WALL (     580 calls)
     sum_band:bec :      0.00s CPU      0.00s WALL (     580 calls)
     addusdens    :      0.10s CPU      0.10s WALL (      26 calls)
                                        0.00s GPU  (      26 calls)
     addusd:skk   :      0.00s CPU      0.00s WALL (      26 calls)
                                        0.00s GPU  (      26 calls)

     Called by *egterg:
     cdiaghg      :      0.14s CPU      0.14s WALL (    1911 calls)
     cegterg:over :      0.08s CPU      0.09s WALL (    1531 calls)
     cegterg:upda :      0.04s CPU      0.04s WALL (    1531 calls)
     cegterg:last :      0.08s CPU      0.09s WALL (    1169 calls)
     h_psi        :      1.10s CPU      1.14s WALL (    2091 calls)
     s_psi        :      0.13s CPU      0.14s WALL (    2091 calls)
     g_psi        :      0.01s CPU      0.01s WALL (    1531 calls)

     Called by h_psi:
     h_psi:calbec :      0.16s CPU      0.16s WALL (    2091 calls)
     vloc_psi     :      0.80s CPU      0.83s WALL (    2091 calls)
     add_vuspsi   :      0.13s CPU      0.14s WALL (    2091 calls)

     General routines
     calbec       :      0.26s CPU      0.27s WALL (    3171 calls)
     fft          :      0.10s CPU      0.10s WALL (     429 calls)
     ffts         :      0.00s CPU      0.00s WALL (      26 calls)
     fftw         :      0.79s CPU      0.82s WALL (   28800 calls)

     Parallel routines

     PAW routines
     PAW_pot      :      1.13s CPU      1.33s WALL (      30 calls)
     PAW_symme    :      0.01s CPU      0.01s WALL (      56 calls)

     PWSCF        :      4.09s CPU      4.39s WALL


   This run was terminated on:  19:43:50  17Jan2026            

=------------------------------------------------------------------------------=
   JOB DONE.
=------------------------------------------------------------------------------=
