 &PROJWFC
   prefix          = 'silicon' 
   outdir          = './temp' 
   filpdos         = 'pdos' 
 /

