 &DOS
   prefix          = 'silicon' 
   outdir          = './temp/' 
   fildos          = 'dos.dat' 
 /

