 &CONTROL
   calculation     = 'bands' 
   outdir          = './temp/' 
   pseudo_dir      = './../../pseudos/' 
   prefix          = 'fe' 
   etot_conv_thr   = 1e-5 
   forc_conv_thr   = 1e-4 
 /
 &SYSTEM
   ibrav           = 1
   A               = 2.7616869040 
   nat             = 2
   ntyp            = 2
   ecutwfc         = 60 
   ecutrho         = 480 
   occupations     = 'smearing' 
   degauss         = 0.02 
   smearing        = 'gaussian' 
   nbnd		   = 32
   nspin           = 2 
   starting_magnetization(1) = 0.3
   starting_magnetization(2) = 0.3
 /
 &ELECTRONS
   conv_thr        = 1.0D-10 
 /
 &IONS
 /
 &CELL
   cell_dofree     = 'ibrav' 
 /
ATOMIC_SPECIES
  Fe1   55.84500  Fe.pbesol-spn-kjpaw_psl.1.0.0.UPF 
  Fe2   55.84500  Fe.pbesol-spn-kjpaw_psl.1.0.0.UPF 
ATOMIC_POSITIONS crystal 
  Fe1      0.000000000    0.000000000    0.000000000    
  Fe1      0.499999821    0.499999821    0.499999821    
K_POINTS crystal_b 
6
  0.0000000000     0.0000000000     0.0000000000     20
  0.0000000000     0.0000000000     0.5000000000     15
 -0.5000000000     0.0000000000     0.5000000000     20
 -0.5000000000     0.0000000000     0.0000000000     25
 -0.5000000000     0.5000000000     0.5000000000     20
  0.0000000000     0.0000000000     0.5000000000     20

