 &CONTROL
   calculation     = 'vc-relax' 
   outdir          = './temp' 
   pseudo_dir      = './../../../pseudos' 
   prefix          = 'mns' 
   verbosity       = 'high' 
   etot_conv_thr   = 1.0D-5 
   forc_conv_thr   = 1.0D-4 
 /
 &SYSTEM
   ibrav           = 0
   nat             = 4
   ntyp            = 3
   ecutwfc         = 30 
   ecutrho         = 150 
   occupations     = 'smearing' 
   degauss         = 0.01 
   smearing        = 'gaussian' 
   nspin           = 2 
   starting_magnetization(1) = 0.2
   starting_magnetization(2) = 0.2
 /
 &ELECTRONS
   conv_thr        = 1.0D-10 
 /
 &IONS
 /
 &CELL
   cell_dofree     = 'ibrav' 
 /
CELL_PARAMETERS angstrom 
     7.824716568    0.000000000    0.000000000 
     1.956178916    3.388201793    0.000000000 
     1.956178916    1.129400511    3.194427316 
ATOMIC_SPECIES
  Mn1   54.93800  Mn.pbe-spn-kjpaw_psl.0.3.1.UPF 
  Mn2   54.93800  Mn.pbe-spn-kjpaw_psl.0.3.1.UPF 
    S   32.06500  S.pbe-n-kjpaw_psl.1.0.0.UPF 
ATOMIC_POSITIONS crystal 
  Mn1      0.372498095    0.751289785    0.752424181    
  Mn2      0.872498095    0.751289785    0.752424300    
    S      0.002502157    0.998710036    0.997575581    
    S      0.502501667    0.998710394    0.997575939    
K_POINTS automatic 
  3 5 5   0 0 0 

