 &CONTROL
   calculation     = 'bands' 
   outdir          = './temp' 
   pseudo_dir      = './../../pseudos' 
   prefix          = 'mns' 
   verbosity       = 'high' 
   etot_conv_thr   = 1.0D-5 
   forc_conv_thr   = 1.0D-4 
 /
 &SYSTEM
   ibrav           = -5
   A               = 3.4859161377 
   cosAB           = 0.5 
   nat             = 2
   ntyp            = 2
   ecutwfc         = 40 
   ecutrho         = 180 
   nbnd            = 21
   occupations     = 'smearing' 
   degauss         = 0.01 
   smearing        = 'gaussian' 
   nspin           = 2 
   starting_magnetization(1) = 0.2
 /
 &ELECTRONS
   conv_thr        = 1.0D-10 
 /
ATOMIC_SPECIES
   Mn   54.93800  Mn.pbe-spn-kjpaw_psl.0.3.1.UPF 
    S   32.06500  S.pbe-n-kjpaw_psl.1.0.0.UPF 
ATOMIC_POSITIONS crystal 
   Mn      0.749999642    0.749999642    0.749999642    
    S      0.000000000    0.000000000    0.000000000    
K_POINTS crystal_b 
13 
   0.000000000    0.000000000    0.000000000     25.000000000   !Gamma
   0.500000000    0.000000000    0.500000000     10.000000000   !X
   0.625000000    0.250000000    0.625000000     30.000000000   !U
   0.000000000    0.000000000    0.000000000     25.000000000   !Gamma
   0.500000000    0.500000000    0.500000000     20.000000000   !L
   0.500000000    0.250000000    0.750000000     15.000000000   !W
   0.500000000    0.000000000    0.500000000     50.000000000   !X
  -0.500000000    0.000000000   -0.500000000     15.000000000   !X'
  -0.625000000   -0.250000000   -0.625000000     30.000000000   !U'
   0.000000000    0.000000000    0.000000000     25.000000000   !Gamma
  -0.500000000   -0.500000000   -0.500000000     20.000000000   !L'
  -0.500000000   -0.250000000   -0.750000000     15.000000000   !W'
  -0.500000000    0.000000000   -0.500000000     25.000000000   !X'

