 &CONTROL
   calculation     = 'vc-relax' 
   outdir          = './temp/' 
   pseudo_dir      = './../../pseudos/' 
   prefix          = 'fe-afm' 
   etot_conv_thr   = 1e-5 
   forc_conv_thr   = 1e-4 
 /
 &SYSTEM
   ibrav           = 1
   A               = 2.8630354404 
   nat             = 2
   ntyp            = 2
   ecutwfc         = 50 
   ecutrho         = 400 
   occupations     = 'smearing' 
   degauss         = 0.02 
   smearing        = 'gaussian' 
   nspin           = 2 
   starting_magnetization(1) = 0.3
   starting_magnetization(2) = -0.3
 /
 &ELECTRONS
   conv_thr        = 1.0D-8 
 /
 &IONS
 /
 &CELL
   cell_dofree     = 'ibrav' 
 /
ATOMIC_SPECIES
  Fe1   55.84500  Fe.pbesol-spn-kjpaw_psl.1.0.0.UPF 
  Fe2   55.84500  Fe.pbesol-spn-kjpaw_psl.1.0.0.UPF 
ATOMIC_POSITIONS crystal 
  Fe1      0.000000000    0.000000000    0.000000000    
  Fe1      0.500000000    0.500000000    0.500000000    
K_POINTS automatic 
  11 11 11   0 0 0 

